     Program PWSCF v.6.8 starts on  7Feb2025 at 16: 4:32

     R & G space division:  proc/nbgrp/npool/nimage =      24

     Waiting for input...
     Reading input from standard input

     Current dimensions of program PWSCF are:
     Max number of different atomic species (ntypx) = 10
     Max number of k-points (npk) =  40000
     Max angular momentum in pseudopotentials (lmaxx) =  4
     Found symmetry operation: I + (  0.0000  0.3333  0.0000)
     This is a supercell, fractional translations are disabled

     Subspace diagonalization in iterative solution of the eigenvalue problem:
     a serial algorithm will be used

     Using Slab Decomposition

     Title:
     NB relax

     bravais-lattice index     =            8
     lattice parameter (alat)  =      28.1190  a.u.
     unit-cell volume          =   47987.7937 (a.u.)^3
     number of atoms/cell      =           54
     number of atomic types    =            2
     number of electrons       =       378.00
     number of Kohn-Sham states=          227
     kinetic-energy cutoff     =      80.0000  Ry
     charge density cutoff     =     320.0000  Ry
     scf convergence threshold =      1.0E-08
     mixing beta               =       0.7000
     number of iterations used =            8  plain     mixing
     energy convergence thresh.=      1.0E-05
     force convergence thresh. =      1.0E-04
     Exchange-correlation= SLA-PW-PBX-PBC
                           (   1   4   3   4   0   0   0)
     nstep                     =          100

     celldm(1)=  28.119000  celldm(2)=   0.713710  celldm(3)=   3.024194
     celldm(4)=   0.000000  celldm(5)=   0.000000  celldm(6)=   0.000000

     crystal axes: (cart. coord. in units of alat)
               a(1) = (   1.000000   0.000000   0.000000 )
               a(2) = (   0.000000   0.713710   0.000000 )
               a(3) = (   0.000000   0.000000   3.024194 )

     reciprocal axes: (cart. coord. in units 2 pi/alat)
               b(1) = (  1.000000  0.000000  0.000000 )
               b(2) = (  0.000000  1.401130  0.000000 )
               b(3) = (  0.000000  0.000000  0.330667 )

     PseudoPot. # 1 for Nb read from file:
     /home/fernando/serse/pseudos/Nb.pbe-sp-hgh.UPF
     MD5 check sum: 9806bd744c6e87f68d8a90a6c9e3b9fe
     Pseudo is Norm-conserving, Zval = 13.0
     Generated in analytical, separable form
     Using radial grid of 1227 points,  6 beta functions with:
                l(1) =   0
                l(2) =   0
                l(3) =   1
                l(4) =   1
                l(5) =   2
                l(6) =   2

     PseudoPot. # 2 for C  read from file:
     /home/fernando/serse/pseudos/C.pbe-hgh.UPF
     MD5 check sum: ca26ff84b356733038fc2f5c468d1892
     Pseudo is Norm-conserving, Zval =  4.0
     Generated in analytical, separable form
     Using radial grid of 1073 points,  1 beta functions with:
                l(1) =   0

     atomic species   valence    mass     pseudopotential
        Nb            13.00    92.90638     Nb( 1.00)
        C              4.00    12.01100     C ( 1.00)

      2 Sym. Ops. (no inversion) found

   Cartesian axes

     site n.     atom                  positions (alat units)
         1           Nb  tau(   1) = (   0.0000000   0.1181889   0.0835051  )
         2           Nb  tau(   2) = (   0.0000000   0.3560922   0.0835051  )
         3           Nb  tau(   3) = (   0.0000000   0.5939954   0.0835051  )
         4           Nb  tau(   4) = (   0.1666667   0.7129537   0.0720485  )
         5           Nb  tau(   5) = (   0.1666667   0.4750505   0.0720485  )
         6           Nb  tau(   6) = (   0.1666667   0.2371473   0.0720485  )
         7           Nb  tau(   7) = (   0.3333333   0.1181889   0.0835051  )
         8           Nb  tau(   8) = (   0.3333333   0.3560922   0.0835051  )
         9           Nb  tau(   9) = (   0.3333333   0.5939954   0.0835051  )
        10           Nb  tau(  10) = (   0.5000000   0.7129537   0.0720485  )
        11           Nb  tau(  11) = (   0.5000000   0.4750505   0.0720485  )
        12           Nb  tau(  12) = (   0.5000000   0.2371473   0.0720485  )
        13           Nb  tau(  13) = (   0.6666667   0.1181889   0.0835051  )
        14           Nb  tau(  14) = (   0.6666667   0.3560922   0.0835051  )
        15           Nb  tau(  15) = (   0.6666667   0.5939954   0.0835051  )
        16           Nb  tau(  16) = (   0.8333333   0.7129537   0.0720485  )
        17           Nb  tau(  17) = (   0.8333333   0.4750505   0.0720485  )
        18           Nb  tau(  18) = (   0.8333333   0.2371473   0.0720485  )
        19           C   tau(  19) = (   0.0460841   0.7129454   0.0019271  )
        20           C   tau(  20) = (   0.0460841   0.4750422   0.0019271  )
        21           C   tau(  21) = (   0.0460841   0.2371390   0.0019271  )
        22           C   tau(  22) = (   0.1205839   0.1181902   0.1536294  )
        23           C   tau(  23) = (   0.1205839   0.3560935   0.1536294  )
        24           C   tau(  24) = (   0.1205839   0.5939967   0.1536294  )
        25           C   tau(  25) = (   0.2127494   0.5939967   0.1536294  )
        26           C   tau(  26) = (   0.2127494   0.3560935   0.1536294  )
        27           C   tau(  27) = (   0.2127494   0.1181902   0.1536294  )
        28           C   tau(  28) = (   0.2872492   0.7129454   0.0019271  )
        29           C   tau(  29) = (   0.3794174   0.7129454   0.0019271  )
        30           C   tau(  30) = (   0.2872492   0.4750422   0.0019271  )
        31           C   tau(  31) = (   0.3794174   0.4750422   0.0019271  )
        32           C   tau(  32) = (   0.2872492   0.2371390   0.0019271  )
        33           C   tau(  33) = (   0.3794174   0.2371390   0.0019271  )
        34           C   tau(  34) = (   0.4539172   0.1181902   0.1536294  )
        35           C   tau(  35) = (   0.5460828   0.1181902   0.1536294  )
        36           C   tau(  36) = (   0.4539172   0.3560935   0.1536294  )
        37           C   tau(  37) = (   0.5460828   0.3560935   0.1536294  )
        38           C   tau(  38) = (   0.4539172   0.5939967   0.1536294  )
        39           C   tau(  39) = (   0.5460828   0.5939967   0.1536294  )
        40           C   tau(  40) = (   0.6205826   0.7129454   0.0019271  )
        41           C   tau(  41) = (   0.7127508   0.7129454   0.0019271  )
        42           C   tau(  42) = (   0.6205826   0.4750422   0.0019271  )
        43           C   tau(  43) = (   0.7127508   0.4750422   0.0019271  )
        44           C   tau(  44) = (   0.6205826   0.2371390   0.0019271  )
        45           C   tau(  45) = (   0.7127508   0.2371390   0.0019271  )
        46           C   tau(  46) = (   0.7872505   0.1181902   0.1536294  )
        47           C   tau(  47) = (   0.8794161   0.1181902   0.1536294  )
        48           C   tau(  48) = (   0.7872505   0.3560935   0.1536294  )
        49           C   tau(  49) = (   0.9539159   0.2371390   0.0019271  )
        50           C   tau(  50) = (   0.9539159   0.4750422   0.0019271  )
        51           C   tau(  51) = (   0.9539159   0.7129454   0.0019271  )
        52           C   tau(  52) = (   0.7872505   0.5939967   0.1536294  )
        53           C   tau(  53) = (   0.8794161   0.5939967   0.1536294  )
        54           C   tau(  54) = (   0.8794161   0.3560935   0.1536294  )

     number of k points=     9  Gaussian smearing, width (Ry)=  0.0100
                       cart. coord. in units 2pi/alat
        k(    1) = (   0.0000000   0.0000000   0.0000000), wk =   0.0800000
        k(    2) = (   0.0000000   0.2802260   0.0000000), wk =   0.1600000
        k(    3) = (   0.0000000   0.5604520   0.0000000), wk =   0.1600000
        k(    4) = (   0.2000000   0.0000000   0.0000000), wk =   0.1600000
        k(    5) = (   0.2000000   0.2802260   0.0000000), wk =   0.3200000
        k(    6) = (   0.2000000   0.5604520   0.0000000), wk =   0.3200000
        k(    7) = (   0.4000000   0.0000000   0.0000000), wk =   0.1600000
        k(    8) = (   0.4000000   0.2802260   0.0000000), wk =   0.3200000
        k(    9) = (   0.4000000   0.5604520   0.0000000), wk =   0.3200000

     Initial potential from superposition of free atoms

     starting charge  143.99850, renormalised to  378.00000

     negative rho (up, down):  4.954E-03 0.000E+00
     Starting wfcs are  144 randomized atomic wfcs +   83 random wfcs

     Self-consistent Calculation

     iteration #  1     ecut=    80.00 Ry     beta= 0.70
     Davidson diagonalization with overlap
     ethr =  1.00E-02,  avg # of iterations = 16.6

     negative rho (up, down):  9.540E-04 0.000E+00

     total energy              =   -1530.70468166 Ry
     estimated scf accuracy    <    3813.83064140 Ry

[...]

     iteration #  3     ecut=    80.00 Ry     beta= 0.70
     Davidson diagonalization with overlap
     c_bands:  1 eigenvalues not converged
     c_bands:  2 eigenvalues not converged
     c_bands:  1 eigenvalues not converged
     ethr =  1.00E-02,  avg # of iterations = 19.7

[...]

     iteration # 20     ecut=    80.00 Ry     beta= 0.70
     Davidson diagonalization with overlap
     c_bands:  1 eigenvalues not converged
     ethr =  1.65E-06,  avg # of iterations =  6.0

[...]

     End of self-consistent calculation

          k = 0.0000 0.0000 0.0000 (579807 PWs)   bands (ev):

   -60.6915 -60.6655 -60.6655 -60.6589 -60.6589 -60.6460 -60.6460 -60.6460
   -60.6459 -60.6200 -60.6200 -60.6200 -60.6200 -60.6138 -60.6138 -60.6071
   -60.6071 -60.5879 -36.0126 -36.0126 -36.0126 -36.0126 -35.9232 -35.9145
   -35.9145 -35.9145 -35.9145 -35.8952 -35.8951 -35.8259 -35.7654 -35.7653
   -35.7529 -35.7529 -35.7497 -35.7497 -35.7341 -35.7341 -35.7185 -35.6613
   -35.6613 -35.6585 -35.6584 -35.6386 -35.6386 -35.6385 -35.6385 -35.6081
   -35.6081 -35.6039 -35.6039 -35.5989 -35.5989 -35.5989 -35.5989 -35.5792
   -35.5791 -35.5619 -35.5277 -35.4827 -35.4826 -35.4826 -35.4826 -35.3694
   -35.3694 -35.3620 -35.3620 -35.3216 -35.3216 -35.3216 -35.3216 -35.1802
   -18.8798 -18.6598 -18.6598 -18.4919 -18.4919 -18.4656 -18.4596 -18.4596
   -18.3605 -18.3605 -18.3605 -18.3605 -18.3060 -18.3060 -18.2697 -18.2696
   -18.2696 -18.2696 -11.6988 -11.6988 -11.6988 -11.6988 -11.5897 -11.5897
   -11.3686 -11.3539 -11.3539 -11.3539 -11.3539 -11.0592 -11.0592 -10.8869
   -10.8869 -10.4527 -10.4527 -10.1014 -10.0669  -9.7249  -9.7249  -9.1947
    -9.0109  -9.0109  -8.8112  -8.8112  -8.8112  -8.8112  -8.8036  -8.8024
    -8.8024  -8.6995  -8.6995  -8.6413  -8.6413  -8.5624  -8.5624  -8.2391
    -8.2391  -8.2290  -8.2290  -8.2290  -8.2290  -8.2067  -8.2067  -8.2067
    -8.2067  -8.1597  -8.1597  -8.1247  -8.0217  -8.0217  -7.8055  -7.8055
    -7.8055  -7.8055  -7.7658  -7.6234  -7.6234  -7.5694  -7.5694  -7.5694
    -7.5694  -7.5128  -7.5128  -7.5128  -7.5128  -7.2330  -7.2137  -7.2137
    -7.1927  -7.1450  -7.1449  -7.0087  -7.0087  -6.1660  -6.1660  -6.1660
    -6.1660  -6.0832  -6.0832  -5.2364  -5.2364  -4.9441  -4.9441  -4.9440
    -4.9440  -4.8382  -4.8382  -4.8382  -4.8382  -4.2203  -4.2203  -4.2070
[...]
C            13.0816235806        5.2986601644        2.2874561609

     Writing output data file /home/fernando/serse/temp/NB.save/
     NEW-OLD atomic charge density approx. for the potential

[...]

     Total force =     0.031616     Total SCF correction =     0.000167
     Energy error            =      6.8E-04 Ry
     Gradient error          =      4.8E-03 Ry/Bohr

[...]

     energy             old  =   -2464.1382279994 Ry
     energy             new  =   -2464.1389107712 Ry

     CASE: energy            _new < energy            _old

[...]

     Threshold (ethr) on eigenvalues was too large:
     Diagonalizing with lowered threshold

     Davidson diagonalization with overlap
     ethr =  8.18E-08,  avg # of iterations =  3.6

[...]

     negative rho (up, down):  3.213E-06 0.000E+00

[...]

     number of scf cycles    =   7
     number of bfgs steps    =   6

     energy             old  =   -2464.1395626228 Ry
     energy             new  =   -2464.1395637162 Ry

     CASE: energy            _new < energy            _old

     new trust radius        =       0.0002316807 bohr
     new conv_thr            =            1.0E-10 Ry

ATOMIC_POSITIONS (angstrom)
Nb            0.0000000000        1.7586535062        1.2414422335
Nb            0.0000000000        5.2986161429        1.2414418557
Nb            0.0000000000        8.8386190568        1.2414447988
Nb            2.4799839165       10.6086227142        1.0732387409
Nb            2.4799877772        7.0686259502        1.0732477990
Nb            2.4799810602        3.5286470334        1.0732341820
Nb            4.9599695869        1.7586500769        1.2414330715
Nb            4.9599733037        5.2986266256        1.2414245705
Nb            4.9599733723        8.8386114884        1.2414279038
Nb            7.4399669640       10.6086164426        1.0732108316
Nb            7.4399669640        7.0686275891        1.0732083176
Nb            7.4399669640        3.5286512973        1.0732056919
Nb            9.9199643411        1.7586500769        1.2414330715
Nb            9.9199606243        5.2986266256        1.2414245705
Nb            9.9199605557        8.8386114884        1.2414279038
Nb           12.3999500115       10.6086227142        1.0732387409
Nb           12.3999461508        7.0686259502        1.0732477990
Nb           12.3999528678        3.5286470334        1.0732341820
C             0.6832097269       10.6086234796        0.0217649399
C             0.6832082963        7.0686277634        0.0217868645
C             0.6832101336        3.5286440484        0.0217577099
C             1.7967667921        1.7586758773        2.2929057774
C             1.7967721051        5.2986429814        2.2929022631
C             1.7967716394        8.8386474294        2.2928986068
C             3.1631941571        8.8386420649        2.2928891393
C             3.1631946950        5.2986481377        2.2928914004
C             3.1631905483        1.7586759662        2.2928994214
C             4.2767554260       10.6086207116        0.0217731295
C             5.6431784926       10.6086174469        0.0217656123
C             4.2767588693        7.0686289989        0.0217686375
C             5.6431761389        7.0686293004        0.0217566541
C             4.2767546434        3.5286449274        0.0217639052
C             5.6431772577        3.5286478686        0.0217551968
C             6.7567526904        1.7586757646        2.2928634884
C             8.1231812376        1.7586757646        2.2928634884
C             6.7567563668        5.2986534921        2.2928672465
C             8.1231775612        5.2986534921        2.2928672465
C             6.7567553085        8.8386364781        2.2928681264
C             8.1231786195        8.8386364781        2.2928681264
C             9.2367554354       10.6086174469        0.0217656123
C            10.6031785020       10.6086207116        0.0217731295
C             9.2367577891        7.0686293004        0.0217566541
C            10.6031750587        7.0686289989        0.0217686375
C             9.2367566703        3.5286478686        0.0217551968
C            10.6031792846        3.5286449274        0.0217639052
C            11.7167433797        1.7586759662        2.2928994214
C            13.0831671359        1.7586758773        2.2929057774
C            11.7167392330        5.2986481377        2.2928914004
C            14.1967237944        3.5286440484        0.0217577099
C            14.1967256317        7.0686277634        0.0217868645
C            14.1967242011       10.6086234796        0.0217649399
C            11.7167397709        8.8386420649        2.2928891393
C            13.0831622886        8.8386474294        2.2928986068
C            13.0831618229        5.2986429814        2.2929022631

     Writing output data file /home/fernando/serse/temp/NB.save/
     NEW-OLD atomic charge density approx. for the potential

     Self-consistent Calculation

[...]

     Threshold (ethr) on eigenvalues was too large:
     Diagonalizing with lowered threshold

     Davidson diagonalization with overlap
     ethr =  8.86E-09,  avg # of iterations =  3.6

[...]

     total energy              =   -2464.13956405 Ry
     estimated scf accuracy    <          8.9E-10 Ry

     iteration # 17     ecut=    80.00 Ry     beta= 0.70
     Davidson diagonalization with overlap
     ethr =  2.34E-13,  avg # of iterations =  2.0

     End of self-consistent calculation

[...]

          k = 0.4000 0.5605 0.0000 (579684 PWs)   bands (ev):

   -60.6889 -60.6840 -60.6824 -60.6781 -60.6509 -60.6487 -60.6435 -60.6428
   -60.6410 -60.6399 -60.6390 -60.6379 -60.6341 -60.6336 -60.6104 -60.6077
   -60.6061 -60.6027 -36.0619 -36.0576 -35.9697 -35.9394 -35.9351 -35.9310
   -35.9208 -35.9061 -35.9055 -35.8991 -35.8868 -35.8527 -35.8161 -35.7960
   -35.7784 -35.7643 -35.7511 -35.7093 -35.7046 -35.6951 -35.6924 -35.6918
   -35.6837 -35.6611 -35.6484 -35.6413 -35.6323 -35.6311 -35.6276 -35.6270
   -35.6261 -35.6201 -35.6183 -35.6128 -35.6120 -35.6076 -35.5812 -35.5772
   -35.5742 -35.5681 -35.5343 -35.5104 -35.4877 -35.4677 -35.4640 -35.4505
   -35.4307 -35.4110 -35.3492 -35.3422 -35.2753 -35.2622 -35.2616 -35.2358
   -18.7774 -18.7329 -18.6908 -18.6508 -18.5160 -18.4796 -18.4569 -18.4476
   -18.4429 -18.4253 -18.4058 -18.4000 -18.3507 -18.3316 -18.3175 -18.3022
   -18.2551 -18.2514 -11.7841 -11.7689 -11.5584 -11.5073 -11.4887 -11.4852
   -11.4395 -11.4165 -11.3748 -11.3502 -11.2563 -11.1445 -11.0511 -10.9296
   -10.6109 -10.5099 -10.4083 -10.3153  -9.7913  -9.7163  -9.5454  -9.4772
    -9.0688  -8.9177  -8.8822  -8.8324  -8.8299  -8.8151  -8.7910  -8.7858
    -8.7260  -8.7149  -8.6700  -8.5943  -8.5678  -8.5583  -8.4520  -8.4224
    -8.4106  -8.4033  -8.3513  -8.3233  -8.2127  -8.1904  -8.1638  -8.1011
    -8.0828  -8.0388  -8.0352  -8.0162  -7.9831  -7.9814  -7.9787  -7.9624
    -7.9460  -7.9275  -7.9226  -7.9156  -7.9144  -7.8937  -7.7903  -7.7340
    -7.3787  -7.3664  -7.2837  -7.2570  -7.1066  -7.0884  -7.0770  -7.0749
    -7.0375  -7.0327  -7.0219  -6.9934  -6.8244  -6.8062  -6.3805  -6.1892
    -6.0407  -5.8753  -5.6665  -5.5191  -5.4669  -5.3879  -5.3189  -5.2097
    -5.2049  -5.0679  -4.1618  -4.1339  -4.1240  -4.0780  -4.0771  -4.0735
    -4.0673  -3.9264  -3.8474  -3.8113  -3.7618  -3.6189  -3.6122  -3.3427
    -3.3352  -3.2140  -3.0966  -2.9277  -2.7917  -2.7004  -2.5618  -2.5495
    -2.4795  -2.2770  -2.2306  -2.1272  -2.1093  -2.0960  -2.0732  -2.0546
    -2.0491  -2.0420  -2.0322  -1.8710  -1.5368  -1.4920  -1.4894  -1.4738
    -1.4294  -1.3961  -1.3640  -1.3476  -1.2523  -1.1578  -1.1563  -1.0041
    -0.8592  -0.7882  -0.7837

     the Fermi energy is    -3.7234 ev

!    total energy              =   -2464.13956405 Ry
     estimated scf accuracy    <          1.0E-10 Ry
     smearing contrib. (-TS)   =      -0.01361931 Ry
     internal energy E=F+TS    =   -2464.12594474 Ry

     The total energy is F=E-TS. E is the sum of the following terms:
     one-electron contribution =  -39858.61457702 Ry
     hartree contribution      =   19866.41724331 Ry
     xc contribution           =    -370.30865202 Ry
     ewald contribution        =   17898.38004099 Ry

     convergence has been achieved in  17 iterations

     Forces acting on atoms (cartesian axes, Ry/au):

     atom    1 type  1   force =     0.00000000   -0.00000488    0.00006885
     atom    2 type  1   force =     0.00000000    0.00000060    0.00007389
     atom    3 type  1   force =     0.00000000    0.00000538    0.00006976
     atom    4 type  1   force =    -0.00000547   -0.00000362   -0.00006873
     atom    5 type  1   force =    -0.00000112    0.00000294   -0.00006824
     atom    6 type  1   force =    -0.00000128   -0.00000428   -0.00006950
     atom    7 type  1   force =    -0.00000486   -0.00000646    0.00006390
     atom    8 type  1   force =    -0.00000486    0.00000662    0.00006806
     atom    9 type  1   force =     0.00000507    0.00000124    0.00006564
     atom   10 type  1   force =     0.00000000   -0.00001068   -0.00007465
     atom   11 type  1   force =     0.00000000    0.00000992   -0.00007759
     atom   12 type  1   force =     0.00000000   -0.00000430   -0.00007643
     atom   13 type  1   force =     0.00000486   -0.00000646    0.00006390
     atom   14 type  1   force =     0.00000486    0.00000662    0.00006806
     atom   15 type  1   force =    -0.00000507    0.00000124    0.00006564
     atom   16 type  1   force =     0.00000547   -0.00000362   -0.00006873
     atom   17 type  1   force =     0.00000112    0.00000294   -0.00006824
     atom   18 type  1   force =     0.00000128   -0.00000428   -0.00006950
     atom   19 type  2   force =     0.00004985    0.00000106    0.00000628
     atom   20 type  2   force =     0.00005539    0.00000216    0.00000309
     atom   21 type  2   force =     0.00005076    0.00000227    0.00000533
     atom   22 type  2   force =    -0.00004438   -0.00000096   -0.00000389
     atom   23 type  2   force =    -0.00004855   -0.00000018   -0.00000322
     atom   24 type  2   force =    -0.00004717   -0.00000249   -0.00000258
     atom   25 type  2   force =     0.00005092   -0.00000116   -0.00000149
     atom   26 type  2   force =     0.00005211   -0.00000113   -0.00000164
     atom   27 type  2   force =     0.00004890   -0.00000138   -0.00000333
     atom   28 type  2   force =    -0.00004674    0.00000153    0.00000309
     atom   29 type  2   force =     0.00004891    0.00000240    0.00000246
     atom   30 type  2   force =    -0.00005724    0.00000196    0.00000370
     atom   31 type  2   force =     0.00005797    0.00000207    0.00000357
     atom   32 type  2   force =    -0.00004805    0.00000204    0.00000376
     atom   33 type  2   force =     0.00004955    0.00000107    0.00000316
     atom   34 type  2   force =    -0.00004022   -0.00000163    0.00000042
     atom   35 type  2   force =     0.00004022   -0.00000163    0.00000042
     atom   36 type  2   force =    -0.00005184   -0.00000092   -0.00000067
     atom   37 type  2   force =     0.00005184   -0.00000092   -0.00000067
     atom   38 type  2   force =    -0.00004781   -0.00000115   -0.00000110
     atom   39 type  2   force =     0.00004781   -0.00000115   -0.00000110
     atom   40 type  2   force =    -0.00004891    0.00000240    0.00000246
     atom   41 type  2   force =     0.00004674    0.00000153    0.00000309
     atom   42 type  2   force =    -0.00005797    0.00000207    0.00000357
     atom   43 type  2   force =     0.00005724    0.00000196    0.00000370
     atom   44 type  2   force =    -0.00004955    0.00000107    0.00000316
     atom   45 type  2   force =     0.00004805    0.00000204    0.00000376
     atom   46 type  2   force =    -0.00004890   -0.00000138   -0.00000333
     atom   47 type  2   force =     0.00004438   -0.00000096   -0.00000389
     atom   48 type  2   force =    -0.00005211   -0.00000113   -0.00000164
     atom   49 type  2   force =    -0.00005076    0.00000227    0.00000533
     atom   50 type  2   force =    -0.00005539    0.00000216    0.00000309
     atom   51 type  2   force =    -0.00004985    0.00000106    0.00000628
     atom   52 type  2   force =    -0.00005092   -0.00000116   -0.00000149
     atom   53 type  2   force =     0.00004717   -0.00000249   -0.00000258
     atom   54 type  2   force =     0.00004855   -0.00000018   -0.00000322

     Total force =     0.000422     Total SCF correction =     0.000018
     Energy error            =      3.4E-07 Ry
     Gradient error          =      7.8E-05 Ry/Bohr

     bfgs converged in   8 scf cycles and   7 bfgs steps
     (criteria: energy <  1.0E-05 Ry, force <  1.0E-04 Ry/Bohr)

     End of BFGS Geometry Optimization

     Final energy             =   -2464.1395640530 Ry

     File /home/fernando/serse/temp/NB.bfgs deleted, as requested
Begin final coordinates

ATOMIC_POSITIONS (angstrom)
Nb            0.0000000000        1.7586535062        1.2414422335
Nb            0.0000000000        5.2986161429        1.2414418557
Nb            0.0000000000        8.8386190568        1.2414447988
Nb            2.4799839165       10.6086227142        1.0732387409
Nb            2.4799877772        7.0686259502        1.0732477990
Nb            2.4799810602        3.5286470334        1.0732341820
Nb            4.9599695869        1.7586500769        1.2414330715
Nb            4.9599733037        5.2986266256        1.2414245705
Nb            4.9599733723        8.8386114884        1.2414279038
Nb            7.4399669640       10.6086164426        1.0732108316
Nb            7.4399669640        7.0686275891        1.0732083176
Nb            7.4399669640        3.5286512973        1.0732056919
Nb            9.9199643411        1.7586500769        1.2414330715
Nb            9.9199606243        5.2986266256        1.2414245705
Nb            9.9199605557        8.8386114884        1.2414279038
Nb           12.3999500115       10.6086227142        1.0732387409
Nb           12.3999461508        7.0686259502        1.0732477990
Nb           12.3999528678        3.5286470334        1.0732341820
C             0.6832097269       10.6086234796        0.0217649399
C             0.6832082963        7.0686277634        0.0217868645
C             0.6832101336        3.5286440484        0.0217577099
C             1.7967667921        1.7586758773        2.2929057774
C             1.7967721051        5.2986429814        2.2929022631
C             1.7967716394        8.8386474294        2.2928986068
C             3.1631941571        8.8386420649        2.2928891393
C             3.1631946950        5.2986481377        2.2928914004
C             3.1631905483        1.7586759662        2.2928994214
C             4.2767554260       10.6086207116        0.0217731295
C             5.6431784926       10.6086174469        0.0217656123
C             4.2767588693        7.0686289989        0.0217686375
C             5.6431761389        7.0686293004        0.0217566541
C             4.2767546434        3.5286449274        0.0217639052
C             5.6431772577        3.5286478686        0.0217551968
C             6.7567526904        1.7586757646        2.2928634884
C             8.1231812376        1.7586757646        2.2928634884
C             6.7567563668        5.2986534921        2.2928672465
C             8.1231775612        5.2986534921        2.2928672465
C             6.7567553085        8.8386364781        2.2928681264
C             8.1231786195        8.8386364781        2.2928681264
C             9.2367554354       10.6086174469        0.0217656123
C            10.6031785020       10.6086207116        0.0217731295
C             9.2367577891        7.0686293004        0.0217566541
C            10.6031750587        7.0686289989        0.0217686375
C             9.2367566703        3.5286478686        0.0217551968
C            10.6031792846        3.5286449274        0.0217639052
C            11.7167433797        1.7586759662        2.2928994214
C            13.0831671359        1.7586758773        2.2929057774
C            11.7167392330        5.2986481377        2.2928914004
C            14.1967237944        3.5286440484        0.0217577099
C            14.1967256317        7.0686277634        0.0217868645
C            14.1967242011       10.6086234796        0.0217649399
C            11.7167397709        8.8386420649        2.2928891393
C            13.0831622886        8.8386474294        2.2928986068
C            13.0831618229        5.2986429814        2.2929022631
End final coordinates

     Writing output data file /home/fernando/serse/temp/NB.save/

     General routines

     Parallel routines

   This run was terminated on:   5:37:19   8Feb2025

   JOB DONE.