     Program PWSCF v.6.8 starts on  5Mar2025 at  1:48:27

     R & G space division:  proc/nbgrp/npool/nimage =      24

     Waiting for input...
     Reading input from standard input

     Current dimensions of program PWSCF are:
     Max number of different atomic species (ntypx) = 10
     Max number of k-points (npk) =  40000
     Max angular momentum in pseudopotentials (lmaxx) =  4
     Found symmetry operation: I + (  0.0000  0.3333  0.0000)
     This is a supercell, fractional translations are disabled

     Subspace diagonalization in iterative solution of the eigenvalue problem:
     a serial algorithm will be used

     Using Slab Decomposition

     Title:
     NB relax

     bravais-lattice index     =            8
     lattice parameter (alat)  =      28.1190  a.u.
     unit-cell volume          =   47987.7937 (a.u.)^3
     number of atoms/cell      =           54
     number of atomic types    =            2
     number of electrons       =       378.00
     number of Kohn-Sham states=          227
     kinetic-energy cutoff     =     100.0000  Ry
     charge density cutoff     =     400.0000  Ry
     scf convergence threshold =      1.0E-08
     mixing beta               =       0.7000
     number of iterations used =            8  plain     mixing
     energy convergence thresh.=      1.0E-05
     force convergence thresh. =      1.0E-04
     Exchange-correlation= SLA-PW-PBX-PBC
                           (   1   4   3   4   0   0   0)
     nstep                     =          100

     celldm(1)=  28.119000  celldm(2)=   0.713710  celldm(3)=   3.024194
     celldm(4)=   0.000000  celldm(5)=   0.000000  celldm(6)=   0.000000

     crystal axes: (cart. coord. in units of alat)
               a(1) = (   1.000000   0.000000   0.000000 )
               a(2) = (   0.000000   0.713710   0.000000 )
               a(3) = (   0.000000   0.000000   3.024194 )

     reciprocal axes: (cart. coord. in units 2 pi/alat)
               b(1) = (  1.000000  0.000000  0.000000 )
               b(2) = (  0.000000  1.401130  0.000000 )
               b(3) = (  0.000000  0.000000  0.330667 )

     PseudoPot. # 1 for Nb read from file:
     /home/fernando/serse/pseudos/Nb.pbe-sp-hgh.UPF
     MD5 check sum: 9806bd744c6e87f68d8a90a6c9e3b9fe
     Pseudo is Norm-conserving, Zval = 13.0
     Generated in analytical, separable form
     Using radial grid of 1227 points,  6 beta functions with:
                l(1) =   0
                l(2) =   0
                l(3) =   1
                l(4) =   1
                l(5) =   2
                l(6) =   2

     PseudoPot. # 2 for C  read from file:
     /home/fernando/serse/pseudos/C.pbe-hgh.UPF
     MD5 check sum: ca26ff84b356733038fc2f5c468d1892
     Pseudo is Norm-conserving, Zval =  4.0
     Generated in analytical, separable form
     Using radial grid of 1073 points,  1 beta functions with:
                l(1) =   0

     atomic species   valence    mass     pseudopotential
        Nb            13.00    92.90638     Nb( 1.00)
        C              4.00    12.01100     C ( 1.00)

      2 Sym. Ops. (no inversion) found

   Cartesian axes

     site n.     atom                  positions (alat units)
         1           Nb  tau(   1) = (   0.0000000   0.1181889   0.0835051  )
         2           Nb  tau(   2) = (   0.0000000   0.3560922   0.0835051  )
         3           Nb  tau(   3) = (   0.0000000   0.5939954   0.0835051  )
         4           Nb  tau(   4) = (   0.1666667   0.7129537   0.0720485  )
         5           Nb  tau(   5) = (   0.1666667   0.4750505   0.0720485  )
         6           Nb  tau(   6) = (   0.1666667   0.2371473   0.0720485  )
         7           Nb  tau(   7) = (   0.3333333   0.1181889   0.0835051  )
         8           Nb  tau(   8) = (   0.3333333   0.3560922   0.0835051  )
         9           Nb  tau(   9) = (   0.3333333   0.5939954   0.0835051  )
        10           Nb  tau(  10) = (   0.5000000   0.7129537   0.0720485  )
        11           Nb  tau(  11) = (   0.5000000   0.4750505   0.0720485  )
        12           Nb  tau(  12) = (   0.5000000   0.2371473   0.0720485  )
        13           Nb  tau(  13) = (   0.6666667   0.1181889   0.0835051  )
        14           Nb  tau(  14) = (   0.6666667   0.3560922   0.0835051  )
        15           Nb  tau(  15) = (   0.6666667   0.5939954   0.0835051  )
        16           Nb  tau(  16) = (   0.8333333   0.7129537   0.0720485  )
        17           Nb  tau(  17) = (   0.8333333   0.4750505   0.0720485  )
        18           Nb  tau(  18) = (   0.8333333   0.2371473   0.0720485  )
        19           C   tau(  19) = (   0.0460841   0.7129454   0.0019271  )
        20           C   tau(  20) = (   0.0460841   0.4750422   0.0019271  )
        21           C   tau(  21) = (   0.0460841   0.2371390   0.0019271  )
        22           C   tau(  22) = (   0.1205839   0.1181902   0.1536294  )
        23           C   tau(  23) = (   0.1205839   0.3560935   0.1536294  )
        24           C   tau(  24) = (   0.1205839   0.5939967   0.1536294  )
        25           C   tau(  25) = (   0.2127494   0.5939967   0.1536294  )
        26           C   tau(  26) = (   0.2127494   0.3560935   0.1536294  )
        27           C   tau(  27) = (   0.2127494   0.1181902   0.1536294  )
        28           C   tau(  28) = (   0.2872492   0.7129454   0.0019271  )
        29           C   tau(  29) = (   0.3794174   0.7129454   0.0019271  )
        30           C   tau(  30) = (   0.2872492   0.4750422   0.0019271  )
        31           C   tau(  31) = (   0.3794174   0.4750422   0.0019271  )
        32           C   tau(  32) = (   0.2872492   0.2371390   0.0019271  )
        33           C   tau(  33) = (   0.3794174   0.2371390   0.0019271  )
        34           C   tau(  34) = (   0.4539172   0.1181902   0.1536294  )
        35           C   tau(  35) = (   0.5460828   0.1181902   0.1536294  )
        36           C   tau(  36) = (   0.4539172   0.3560935   0.1536294  )
        37           C   tau(  37) = (   0.5460828   0.3560935   0.1536294  )
        38           C   tau(  38) = (   0.4539172   0.5939967   0.1536294  )
        39           C   tau(  39) = (   0.5460828   0.5939967   0.1536294  )
        40           C   tau(  40) = (   0.6205826   0.7129454   0.0019271  )
        41           C   tau(  41) = (   0.7127508   0.7129454   0.0019271  )
        42           C   tau(  42) = (   0.6205826   0.4750422   0.0019271  )
        43           C   tau(  43) = (   0.7127508   0.4750422   0.0019271  )
        44           C   tau(  44) = (   0.6205826   0.2371390   0.0019271  )
        45           C   tau(  45) = (   0.7127508   0.2371390   0.0019271  )
        46           C   tau(  46) = (   0.7872505   0.1181902   0.1536294  )
        47           C   tau(  47) = (   0.8794161   0.1181902   0.1536294  )
        48           C   tau(  48) = (   0.7872505   0.3560935   0.1536294  )
        49           C   tau(  49) = (   0.9539159   0.2371390   0.0019271  )
        50           C   tau(  50) = (   0.9539159   0.4750422   0.0019271  )
        51           C   tau(  51) = (   0.9539159   0.7129454   0.0019271  )
        52           C   tau(  52) = (   0.7872505   0.5939967   0.1536294  )
        53           C   tau(  53) = (   0.8794161   0.5939967   0.1536294  )
        54           C   tau(  54) = (   0.8794161   0.3560935   0.1536294  )

     number of k points=     9  Gaussian smearing, width (Ry)=  0.0100
                       cart. coord. in units 2pi/alat
        k(    1) = (   0.0000000   0.0000000   0.0000000), wk =   0.0800000
        k(    2) = (   0.0000000   0.2802260   0.0000000), wk =   0.1600000
        k(    3) = (   0.0000000   0.5604520   0.0000000), wk =   0.1600000
        k(    4) = (   0.2000000   0.0000000   0.0000000), wk =   0.1600000
        k(    5) = (   0.2000000   0.2802260   0.0000000), wk =   0.3200000
        k(    6) = (   0.2000000   0.5604520   0.0000000), wk =   0.3200000
        k(    7) = (   0.4000000   0.0000000   0.0000000), wk =   0.1600000
        k(    8) = (   0.4000000   0.2802260   0.0000000), wk =   0.3200000
        k(    9) = (   0.4000000   0.5604520   0.0000000), wk =   0.3200000

     Initial potential from superposition of free atoms

     starting charge  143.99850, renormalised to  378.00000

     negative rho (up, down):  1.291E-04 0.000E+00
     Starting wfcs are  144 randomized atomic wfcs +   83 random wfcs

     Self-consistent Calculation

     iteration #  1     ecut=   100.00 Ry     beta= 0.70
     Davidson diagonalization with overlap
     ethr =  1.00E-02,  avg # of iterations = 17.2

     total energy              =   -1530.51904921 Ry
     estimated scf accuracy    <    3814.48328803 Ry

[...]

     iteration #  3     ecut=   100.00 Ry     beta= 0.70
     Davidson diagonalization with overlap
     c_bands:  3 eigenvalues not converged
     c_bands:  1 eigenvalues not converged
     c_bands:  2 eigenvalues not converged
     c_bands:  2 eigenvalues not converged
     c_bands:  2 eigenvalues not converged
     c_bands:  1 eigenvalues not converged
     ethr =  1.00E-02,  avg # of iterations = 19.9

[...]

     negative rho (up, down):  1.370E-08 0.000E+00

[...]

     End of self-consistent calculation

          k = 0.0000 0.0000 0.0000 (810009 PWs)   bands (ev):

   -60.7003 -60.6746 -60.6746 -60.6679 -60.6679 -60.6550 -60.6550 -60.6550
   -60.6550 -60.6291 -60.6291 -60.6291 -60.6291 -60.6229 -60.6228 -60.6162
   -60.6162 -60.5968 -36.0122 -36.0122 -36.0122 -36.0122 -35.9228 -35.9142
   -35.9141 -35.9141 -35.9141 -35.8948 -35.8948 -35.8256 -35.7649 -35.7649
   -35.7527 -35.7527 -35.7494 -35.7494 -35.7336 -35.7336 -35.7182 -35.6611
   -35.6611 -35.6583 -35.6583 -35.6384 -35.6384 -35.6384 -35.6384 -35.6080
   -35.6080 -35.6036 -35.6036 -35.5988 -35.5987 -35.5987 -35.5987 -35.5790
   -35.5790 -35.5617 -35.5275 -35.4823 -35.4823 -35.4823 -35.4823 -35.3691
   -35.3690 -35.3616 -35.3616 -35.3213 -35.3213 -35.3213 -35.3213 -35.1798
   -18.8757 -18.6565 -18.6565 -18.4880 -18.4880 -18.4612 -18.4557 -18.4557
   -18.3566 -18.3566 -18.3566 -18.3566 -18.3020 -18.3019 -18.2657 -18.2657
   -18.2657 -18.2657 -11.6987 -11.6987 -11.6987 -11.6987 -11.5896 -11.5896
   -11.3677 -11.3536 -11.3536 -11.3536 -11.3536 -11.0588 -11.0587 -10.8864
   -10.8864 -10.4523 -10.4522 -10.1035 -10.0659  -9.7271  -9.7270  -9.1949
    -9.0132  -9.0131  -8.8127  -8.8127  -8.8127  -8.8127  -8.8040  -8.8026
    -8.8026  -8.7007  -8.7007  -8.6431  -8.6431  -8.5634  -8.5634  -8.2412
    -8.2412  -8.2301  -8.2301  -8.2301  -8.2300  -8.2091  -8.2091  -8.2090
    -8.2090  -8.1608  -8.1608  -8.1265  -8.0231  -8.0230  -7.8083  -7.8083
    -7.8083  -7.8083  -7.7670  -7.6275  -7.6275  -7.5713  -7.5712  -7.5712
    -7.5712  -7.5139  -7.5139  -7.5139  -7.5139  -7.2375  -7.2159  -7.2159
    -7.1943  -7.1461  -7.1461  -7.0125  -7.0125  -6.1685  -6.1685  -6.1685
    -6.1685  -6.0850  -6.0850  -5.2383  -5.2383  -4.9458  -4.9458  -4.9458
    -4.9458  -4.8403  -4.8403  -4.8403  -4.8403  -4.2224  -4.2224  -4.2095
    -4.2095  -4.0259  -4.0259  -4.0259  -4.0259  -3.8514  -3.8514  -3.5665
[...]

     negative rho (up, down):  3.659E-07 0.000E+00

[...]

     iteration #  4     ecut=   100.00 Ry     beta= 0.70
     Davidson diagonalization with overlap
     c_bands:  1 eigenvalues not converged
     ethr =  2.34E-06,  avg # of iterations = 13.2

[...]

     Total force =     0.040874     Total SCF correction =     0.000137
     Energy error            =      7.4E-04 Ry
     Gradient error          =      6.5E-03 Ry/Bohr

[...]

     energy             old  =   -2464.4279723398 Ry
     energy             new  =   -2464.4287076130 Ry

     CASE: energy            _new < energy            _old

[...]

     Threshold (ethr) on eigenvalues was too large:
     Diagonalizing with lowered threshold

     Davidson diagonalization with overlap
     ethr =  2.45E-08,  avg # of iterations =  3.2

[...]

     number of scf cycles    =   6
     number of bfgs steps    =   5

     energy             old  =   -2464.4293950502 Ry
     energy             new  =   -2464.4294367968 Ry

     CASE: energy            _new < energy            _old

     new trust radius        =       0.0001060711 bohr
     new conv_thr            =       0.0000000001 Ry

ATOMIC_POSITIONS (angstrom)
Nb            0.0000000000        1.7585964145        1.2423850007
Nb            0.0000000000        5.2986823826        1.2423859290
Nb            0.0000000000        8.8386326551        1.2423775624
Nb            2.4799880746       10.6086071129        1.0722662582
Nb            2.4799975925        7.0686515705        1.0722619048
Nb            2.4799940209        3.5286521416        1.0722866567
Nb            4.9599817873        1.7586066523        1.2423802223
Nb            4.9599853771        5.2986854369        1.2423791173
Nb            4.9599752313        8.8386205014        1.2423808728
Nb            7.4399669640       10.6086053099        1.0722769931
Nb            7.4399669640        7.0686442299        1.0722774214
Nb            7.4399669640        3.5286626318        1.0722943928
Nb            9.9199521407        1.7586066523        1.2423802223
Nb            9.9199485509        5.2986854369        1.2423791173
Nb            9.9199586967        8.8386205014        1.2423808728
Nb           12.3999458534       10.6086071129        1.0722662582
Nb           12.3999363355        7.0686515705        1.0722619048
Nb           12.3999399071        3.5286521416        1.0722866567
C             0.6826147658       10.6086086285        0.0229190158
C             0.6826126653        7.0686259970        0.0229292151
C             0.6826206087        3.5286405866        0.0229911680
C             1.7973828537        1.7586409827        2.2916975424
C             1.7973924123        5.2986828090        2.2916829039
C             1.7973739640        8.8386403086        2.2917434862
C             3.1626218543        8.8386389693        2.2917511977
C             3.1626037459        5.2986871910        2.2916866038
C             3.1626085321        1.7586384950        2.2917021692
C             4.2773721631       10.6086031486        0.0229076129
C             5.6426032030       10.6085969734        0.0229076443
C             4.2773735057        7.0686322277        0.0229130290
C             5.6426084621        7.0686367019        0.0229163059
C             4.2773622884        3.5286416278        0.0229905843
C             5.6426051344        3.5286434067        0.0229874249
C             6.7573574687        1.7586363734        2.2917049482
C             8.1225764593        1.7586363734        2.2917049482
C             6.7573634943        5.2986898154        2.2916961759
C             8.1225704337        5.2986898154        2.2916961759
C             6.7573454632        8.8386391731        2.2917805421
C             8.1225884648        8.8386391731        2.2917805421
C             9.2373307250       10.6085969734        0.0229076443
C            10.6025617649       10.6086031486        0.0229076129
C             9.2373254659        7.0686367019        0.0229163059
C            10.6025604223        7.0686322277        0.0229130290
C             9.2373287936        3.5286434067        0.0229874249
C            10.6025716396        3.5286416278        0.0229905843
C            11.7173253959        1.7586384950        2.2917021692
C            13.0825510743        1.7586409827        2.2916975424
C            11.7173301821        5.2986871910        2.2916866038
C            14.1973133193        3.5286405866        0.0229911680
C            14.1973212627        7.0686259970        0.0229292151
C            14.1973191622       10.6086086285        0.0229190158
C            11.7173120737        8.8386389693        2.2917511977
C            13.0825599640        8.8386403086        2.2917434862
C            13.0825415157        5.2986828090        2.2916829039

     Writing output data file /home/fernando/serse/temp/NB.save/
     NEW-OLD atomic charge density approx. for the potential

     Self-consistent Calculation

[...]

     Threshold (ethr) on eigenvalues was too large:
     Diagonalizing with lowered threshold

     Davidson diagonalization with overlap
     ethr =  1.86E-09,  avg # of iterations =  3.2

[...]

     total energy              =   -2464.42943700 Ry
     estimated scf accuracy    <          2.1E-09 Ry

     iteration # 16     ecut=   100.00 Ry     beta= 0.70
     Davidson diagonalization with overlap
     ethr =  4.96E-13,  avg # of iterations =  1.4

     End of self-consistent calculation

[...]

          k = 0.4000 0.5605 0.0000 (810398 PWs)   bands (ev):

   -60.6956 -60.6907 -60.6891 -60.6848 -60.6576 -60.6554 -60.6503 -60.6497
   -60.6478 -60.6467 -60.6459 -60.6447 -60.6410 -60.6404 -60.6172 -60.6144
   -60.6128 -60.6095 -36.0599 -36.0556 -35.9677 -35.9374 -35.9331 -35.9289
   -35.9188 -35.9041 -35.9034 -35.8971 -35.8848 -35.8507 -35.8141 -35.7940
   -35.7764 -35.7623 -35.7491 -35.7074 -35.7023 -35.6928 -35.6901 -35.6898
   -35.6813 -35.6591 -35.6462 -35.6390 -35.6300 -35.6291 -35.6253 -35.6248
   -35.6239 -35.6178 -35.6161 -35.6105 -35.6098 -35.6056 -35.5790 -35.5750
   -35.5719 -35.5659 -35.5323 -35.5082 -35.4856 -35.4657 -35.4619 -35.4483
   -35.4287 -35.4089 -35.3471 -35.3401 -35.2732 -35.2602 -35.2596 -35.2338
   -18.7808 -18.7364 -18.6943 -18.6542 -18.5196 -18.4831 -18.4603 -18.4509
   -18.4463 -18.4287 -18.4092 -18.4034 -18.3543 -18.3351 -18.3211 -18.3059
   -18.2584 -18.2547 -11.7843 -11.7690 -11.5580 -11.5051 -11.4867 -11.4847
   -11.4390 -11.4133 -11.3717 -11.3495 -11.2546 -11.1426 -11.0482 -10.9266
   -10.6082 -10.5070 -10.4047 -10.3116  -9.7961  -9.7209  -9.5491  -9.4808
    -9.0726  -8.9213  -8.8854  -8.8363  -8.8345  -8.8187  -8.7958  -8.7905
    -8.7309  -8.7188  -8.6735  -8.5980  -8.5729  -8.5632  -8.4568  -8.4265
    -8.4163  -8.4089  -8.3564  -8.3285  -8.2161  -8.1950  -8.1704  -8.1073
    -8.0872  -8.0458  -8.0413  -8.0212  -7.9892  -7.9877  -7.9854  -7.9675
    -7.9490  -7.9306  -7.9273  -7.9207  -7.9189  -7.8970  -7.7954  -7.7388
    -7.3832  -7.3709  -7.2883  -7.2617  -7.1117  -7.0933  -7.0835  -7.0814
    -7.0394  -7.0374  -7.0234  -6.9980  -6.8259  -6.8073  -6.3832  -6.1912
    -6.0433  -5.8770  -5.6655  -5.5182  -5.4644  -5.3863  -5.3147  -5.2088
    -5.2035  -5.0655  -4.1606  -4.1309  -4.1260  -4.0766  -4.0764  -4.0758
    -4.0662  -3.9235  -3.8452  -3.8138  -3.7591  -3.6230  -3.6097  -3.3410
    -3.3329  -3.2142  -3.0956  -2.9251  -2.7925  -2.6997  -2.5655  -2.5534
    -2.4842  -2.2821  -2.2363  -2.1321  -2.1105  -2.0967  -2.0735  -2.0595
    -2.0499  -2.0430  -2.0339  -1.8771  -1.5381  -1.4932  -1.4849  -1.4689
    -1.4264  -1.3974  -1.3652  -1.3444  -1.2506  -1.1624  -1.1604  -1.0023
    -0.8559  -0.7874  -0.7808

     the Fermi energy is    -3.7228 ev

!    total energy              =   -2464.42943700 Ry
     estimated scf accuracy    <          8.7E-11 Ry
     smearing contrib. (-TS)   =      -0.01365397 Ry
     internal energy E=F+TS    =   -2464.41578303 Ry

     The total energy is F=E-TS. E is the sum of the following terms:
     one-electron contribution =  -39862.24614103 Ry
     hartree contribution      =   19868.26010202 Ry
     xc contribution           =    -370.37898594 Ry
     ewald contribution        =   17899.94924193 Ry

     convergence has been achieved in  16 iterations

     Forces acting on atoms (cartesian axes, Ry/au):

     atom    1 type  1   force =     0.00000000    0.00000987    0.00005460
     atom    2 type  1   force =     0.00000000    0.00000144    0.00005195
     atom    3 type  1   force =     0.00000000   -0.00000837    0.00005352
     atom    4 type  1   force =     0.00000247    0.00000588   -0.00005777
     atom    5 type  1   force =    -0.00000843   -0.00000073   -0.00005810
     atom    6 type  1   force =    -0.00000672    0.00000458   -0.00004549
     atom    7 type  1   force =     0.00000260   -0.00000201    0.00005328
     atom    8 type  1   force =    -0.00000268   -0.00000063    0.00005564
     atom    9 type  1   force =     0.00000996    0.00000584    0.00005856
     atom   10 type  1   force =     0.00000000    0.00000148   -0.00005247
     atom   11 type  1   force =     0.00000000    0.00001204   -0.00005061
     atom   12 type  1   force =     0.00000000   -0.00000357   -0.00004179
     atom   13 type  1   force =    -0.00000260   -0.00000201    0.00005328
     atom   14 type  1   force =     0.00000268   -0.00000063    0.00005564
     atom   15 type  1   force =    -0.00000996    0.00000584    0.00005856
     atom   16 type  1   force =    -0.00000247    0.00000588   -0.00005777
     atom   17 type  1   force =     0.00000843   -0.00000073   -0.00005810
     atom   18 type  1   force =     0.00000672    0.00000458   -0.00004549
     atom   19 type  2   force =    -0.00003230    0.00000012   -0.00000376
     atom   20 type  2   force =    -0.00002118    0.00000352   -0.00000022
     atom   21 type  2   force =    -0.00001929    0.00000119    0.00001001
     atom   22 type  2   force =     0.00001886   -0.00000674   -0.00000393
     atom   23 type  2   force =     0.00000487   -0.00000098   -0.00000460
     atom   24 type  2   force =     0.00001855   -0.00000333   -0.00000189
     atom   25 type  2   force =    -0.00002619   -0.00000414   -0.00000362
     atom   26 type  2   force =    -0.00000770   -0.00000237   -0.00000646
     atom   27 type  2   force =    -0.00002089   -0.00000470   -0.00000639
     atom   28 type  2   force =     0.00003619    0.00000057    0.00000152
     atom   29 type  2   force =    -0.00004118    0.00000315    0.00000275
     atom   30 type  2   force =     0.00003232    0.00000197    0.00000231
     atom   31 type  2   force =    -0.00003735   -0.00000055    0.00000307
     atom   32 type  2   force =     0.00002036    0.00000200    0.00000820
     atom   33 type  2   force =    -0.00002069    0.00000205    0.00001069
     atom   34 type  2   force =     0.00001240   -0.00000302   -0.00000585
     atom   35 type  2   force =    -0.00001240   -0.00000302   -0.00000585
     atom   36 type  2   force =    -0.00000138   -0.00000415   -0.00000495
     atom   37 type  2   force =     0.00000138   -0.00000415   -0.00000495
     atom   38 type  2   force =     0.00001880   -0.00000396   -0.00001062
     atom   39 type  2   force =    -0.00001880   -0.00000396   -0.00001062
     atom   40 type  2   force =     0.00004118    0.00000315    0.00000275
     atom   41 type  2   force =    -0.00003619    0.00000057    0.00000152
     atom   42 type  2   force =     0.00003735   -0.00000055    0.00000307
     atom   43 type  2   force =    -0.00003232    0.00000197    0.00000231
     atom   44 type  2   force =     0.00002069    0.00000205    0.00001069
     atom   45 type  2   force =    -0.00002036    0.00000200    0.00000820
     atom   46 type  2   force =     0.00002089   -0.00000470   -0.00000639
     atom   47 type  2   force =    -0.00001886   -0.00000674   -0.00000393
     atom   48 type  2   force =     0.00000770   -0.00000237   -0.00000646
     atom   49 type  2   force =     0.00001929    0.00000119    0.00001001
     atom   50 type  2   force =     0.00002118    0.00000352   -0.00000022
     atom   51 type  2   force =     0.00003230    0.00000012   -0.00000376
     atom   52 type  2   force =     0.00002619   -0.00000414   -0.00000362
     atom   53 type  2   force =    -0.00001855   -0.00000333   -0.00000189
     atom   54 type  2   force =    -0.00000487   -0.00000098   -0.00000460

     Total force =     0.000275     Total SCF correction =     0.000014
     Energy error            =      2.0E-07 Ry
     Gradient error          =      5.9E-05 Ry/Bohr

     bfgs converged in   7 scf cycles and   6 bfgs steps
     (criteria: energy <  1.0E-05 Ry, force <  1.0E-04 Ry/Bohr)

     End of BFGS Geometry Optimization

     Final energy             =   -2464.4294369982 Ry

     File /home/fernando/serse/temp/NB.bfgs deleted, as requested
Begin final coordinates

ATOMIC_POSITIONS (angstrom)
Nb            0.0000000000        1.7585964145        1.2423850007
Nb            0.0000000000        5.2986823826        1.2423859290
Nb            0.0000000000        8.8386326551        1.2423775624
Nb            2.4799880746       10.6086071129        1.0722662582
Nb            2.4799975925        7.0686515705        1.0722619048
Nb            2.4799940209        3.5286521416        1.0722866567
Nb            4.9599817873        1.7586066523        1.2423802223
Nb            4.9599853771        5.2986854369        1.2423791173
Nb            4.9599752313        8.8386205014        1.2423808728
Nb            7.4399669640       10.6086053099        1.0722769931
Nb            7.4399669640        7.0686442299        1.0722774214
Nb            7.4399669640        3.5286626318        1.0722943928
Nb            9.9199521407        1.7586066523        1.2423802223
Nb            9.9199485509        5.2986854369        1.2423791173
Nb            9.9199586967        8.8386205014        1.2423808728
Nb           12.3999458534       10.6086071129        1.0722662582
Nb           12.3999363355        7.0686515705        1.0722619048
Nb           12.3999399071        3.5286521416        1.0722866567
C             0.6826147658       10.6086086285        0.0229190158
C             0.6826126653        7.0686259970        0.0229292151
C             0.6826206087        3.5286405866        0.0229911680
C             1.7973828537        1.7586409827        2.2916975424
C             1.7973924123        5.2986828090        2.2916829039
C             1.7973739640        8.8386403086        2.2917434862
C             3.1626218543        8.8386389693        2.2917511977
C             3.1626037459        5.2986871910        2.2916866038
C             3.1626085321        1.7586384950        2.2917021692
C             4.2773721631       10.6086031486        0.0229076129
C             5.6426032030       10.6085969734        0.0229076443
C             4.2773735057        7.0686322277        0.0229130290
C             5.6426084621        7.0686367019        0.0229163059
C             4.2773622884        3.5286416278        0.0229905843
C             5.6426051344        3.5286434067        0.0229874249
C             6.7573574687        1.7586363734        2.2917049482
C             8.1225764593        1.7586363734        2.2917049482
C             6.7573634943        5.2986898154        2.2916961759
C             8.1225704337        5.2986898154        2.2916961759
C             6.7573454632        8.8386391731        2.2917805421
C             8.1225884648        8.8386391731        2.2917805421
C             9.2373307250       10.6085969734        0.0229076443
C            10.6025617649       10.6086031486        0.0229076129
C             9.2373254659        7.0686367019        0.0229163059
C            10.6025604223        7.0686322277        0.0229130290
C             9.2373287936        3.5286434067        0.0229874249
C            10.6025716396        3.5286416278        0.0229905843
C            11.7173253959        1.7586384950        2.2917021692
C            13.0825510743        1.7586409827        2.2916975424
C            11.7173301821        5.2986871910        2.2916866038
C            14.1973133193        3.5286405866        0.0229911680
C            14.1973212627        7.0686259970        0.0229292151
C            14.1973191622       10.6086086285        0.0229190158
C            11.7173120737        8.8386389693        2.2917511977
C            13.0825599640        8.8386403086        2.2917434862
C            13.0825415157        5.2986828090        2.2916829039
End final coordinates

     Writing output data file /home/fernando/serse/temp/NB.save/

     General routines

     Parallel routines

   This run was terminated on:  17:16:45   6Mar2025

   JOB DONE.