     Program PWSCF v.6.8 starts on 21Jan2025 at 14: 6: 2

     R & G space division:  proc/nbgrp/npool/nimage =      24

     Waiting for input...
     Reading input from standard input

     Current dimensions of program PWSCF are:
     Max number of different atomic species (ntypx) = 10
     Max number of k-points (npk) =  40000
     Max angular momentum in pseudopotentials (lmaxx) =  4
     Message from routine setup:
     no reason to have ecutrho>4*ecutwfc

     Subspace diagonalization in iterative solution of the eigenvalue problem:
     a serial algorithm will be used

     Using Slab Decomposition

     Title:
     NB relax

     bravais-lattice index     =            8
     lattice parameter (alat)  =       9.3730  a.u.
     unit-cell volume          =    3554.6992 (a.u.)^3
     number of atoms/cell      =            6
     number of atomic types    =            2
     number of electrons       =        42.00
     number of Kohn-Sham states=           25
     kinetic-energy cutoff     =      90.0000  Ry
     charge density cutoff     =     400.0000  Ry
     scf convergence threshold =      1.0E-08
     mixing beta               =       0.7000
     number of iterations used =            8  plain     mixing
     energy convergence thresh.=      1.0E-05
     force convergence thresh. =      1.0E-04
     Exchange-correlation= SLA-PW-PBX-PBC
                           (   1   4   3   4   0   0   0)
     nstep                     =          100

     celldm(1)=   9.373042  celldm(2)=   0.713710  celldm(3)=   6.048387
     celldm(4)=   0.000000  celldm(5)=   0.000000  celldm(6)=   0.000000

     crystal axes: (cart. coord. in units of alat)
               a(1) = (   1.000000   0.000000   0.000000 )
               a(2) = (   0.000000   0.713710   0.000000 )
               a(3) = (   0.000000   0.000000   6.048387 )

     reciprocal axes: (cart. coord. in units 2 pi/alat)
               b(1) = (  1.000000  0.000000  0.000000 )
               b(2) = (  0.000000  1.401130  0.000000 )
               b(3) = (  0.000000  0.000000  0.165333 )

     PseudoPot. # 1 for Nb read from file:
     /home/fernando/serse/pseudos/Nb.pbe-sp-hgh.UPF
     MD5 check sum: 9806bd744c6e87f68d8a90a6c9e3b9fe
     Pseudo is Norm-conserving, Zval = 13.0
     Generated in analytical, separable form
     Using radial grid of 1227 points,  6 beta functions with:
                l(1) =   0
                l(2) =   0
                l(3) =   1
                l(4) =   1
                l(5) =   2
                l(6) =   2

     PseudoPot. # 2 for C  read from file:
     /home/fernando/serse/pseudos/C.pbe-hgh.UPF
     MD5 check sum: ca26ff84b356733038fc2f5c468d1892
     Pseudo is Norm-conserving, Zval =  4.0
     Generated in analytical, separable form
     Using radial grid of 1073 points,  1 beta functions with:
                l(1) =   0

     atomic species   valence    mass     pseudopotential
        Nb            13.00    92.90638     Nb( 1.00)
        C              4.00    12.01100     C ( 1.00)

      2 Sym. Ops. (no inversion) found

   Cartesian axes

     site n.     atom                  positions (alat units)
         1           Nb  tau(   1) = (   0.5000000  -0.0022783   0.2157642  )
         2           Nb  tau(   2) = (   0.0000000   0.3545635   0.2508984  )
         3           C   tau(   3) = (   1.1379637  -0.0023008   0.0065403  )
         4           C   tau(   4) = (   1.8620363  -0.0023008   0.0065403  )
         5           C   tau(   5) = (   1.3620349   0.3545856   0.4601284  )
         6           C   tau(   6) = (   1.6379651   0.3545856   0.4601284  )

     number of k points=     9  Gaussian smearing, width (Ry)=  0.0100
                       cart. coord. in units 2pi/alat
        k(    1) = (   0.0000000   0.0000000   0.0000000), wk =   0.0800000
        k(    2) = (   0.0000000   0.2802260   0.0000000), wk =   0.1600000
        k(    3) = (   0.0000000   0.5604520   0.0000000), wk =   0.1600000
        k(    4) = (   0.2000000   0.0000000   0.0000000), wk =   0.1600000
        k(    5) = (   0.2000000   0.2802260   0.0000000), wk =   0.3200000
        k(    6) = (   0.2000000   0.5604520   0.0000000), wk =   0.3200000
        k(    7) = (   0.4000000   0.0000000   0.0000000), wk =   0.1600000
        k(    8) = (   0.4000000   0.2802260   0.0000000), wk =   0.3200000
        k(    9) = (   0.4000000   0.5604520   0.0000000), wk =   0.3200000

     Initial potential from superposition of free atoms

     starting charge   15.99983, renormalised to   42.00000

     negative rho (up, down):  1.098E-05 0.000E+00
     Starting wfcs are   16 randomized atomic wfcs +    9 random wfcs

     Self-consistent Calculation

     iteration #  1     ecut=    90.00 Ry     beta= 0.70
     Davidson diagonalization with overlap
     c_bands:  2 eigenvalues not converged
     ethr =  1.00E-02,  avg # of iterations = 15.0

     total energy              =    -170.09995275 Ry
     estimated scf accuracy    <     423.21626356 Ry

     iteration #  2     ecut=    90.00 Ry     beta= 0.70
     Davidson diagonalization with overlap
     ethr =  1.00E-02,  avg # of iterations = 14.6

[...]

     negative rho (up, down):  2.791E-02 0.000E+00

[...]

     iteration # 11     ecut=    90.00 Ry     beta= 0.70
     Davidson diagonalization with overlap
     c_bands:  1 eigenvalues not converged
     ethr =  3.98E-04,  avg # of iterations =  8.4

[...]

     negative rho (up, down):  2.522E-06 0.000E+00

[...]

     total energy              =    -273.81173199 Ry
     estimated scf accuracy    <       0.00000001 Ry

     iteration # 27     ecut=    90.00 Ry     beta= 0.70
     Davidson diagonalization with overlap
     ethr =  2.49E-11,  avg # of iterations =  4.0

     End of self-consistent calculation

          k = 0.0000 0.0000 0.0000 ( 51171 PWs)   bands (ev):

   -59.8137 -59.7101 -35.0404 -34.9385 -34.8432 -34.6869 -34.6402 -34.2972
   -18.0310 -17.6189 -10.4889  -9.2487  -9.1882  -8.3429  -7.9435  -7.2741
    -6.9110  -6.3739  -6.3173  -1.9273  -1.5342  -1.4880  -0.2117  -0.1732
    -0.0492

[...]

          k = 0.4000 0.5605 0.0000 ( 51310 PWs)   bands (ev):

   -59.7591 -59.7492 -35.1580 -35.1202 -34.7475 -34.7324 -34.5104 -34.4491
   -17.4209 -17.3875 -10.9049 -10.7720  -7.6631  -7.4283  -7.1454  -6.9583
    -6.4472  -6.4181  -4.9361  -4.3358  -4.2107  -3.7046  -1.2950  -1.1180
    -0.1192

     the Fermi energy is    -2.8842 ev

!    total energy              =    -273.81173199 Ry
     estimated scf accuracy    <          5.3E-09 Ry
     smearing contrib. (-TS)   =      -0.00175762 Ry
     internal energy E=F+TS    =    -273.80997437 Ry

     The total energy is F=E-TS. E is the sum of the following terms:
     one-electron contribution =   -2771.66319135 Ry
     hartree contribution      =    1380.20542741 Ry
     xc contribution           =     -41.17261731 Ry
     ewald contribution        =    1158.82040688 Ry

     convergence has been achieved in  27 iterations

     Forces acting on atoms (cartesian axes, Ry/au):

     atom    1 type  1   force =     0.00000000    0.00000035   -0.00005609
     atom    2 type  1   force =     0.00000000   -0.00000150    0.00003270
     atom    3 type  2   force =    -0.00000891    0.00000045    0.00002279
     atom    4 type  2   force =     0.00000891    0.00000045    0.00002279
     atom    5 type  2   force =     0.00001097    0.00000013   -0.00001110
     atom    6 type  2   force =    -0.00001097    0.00000013   -0.00001110

     Total force =     0.000077     Total SCF correction =     0.000095
     SCF correction compared to forces is large: reduce conv_thr to get better values

     BFGS Geometry Optimization
     Energy error            =      0.0E+00 Ry
     Gradient error          =      5.6E-05 Ry/Bohr

     bfgs converged in   1 scf cycles and   0 bfgs steps
     (criteria: energy <  1.0E-05 Ry, force <  1.0E-04 Ry/Bohr)

     End of BFGS Geometry Optimization

     Final energy             =    -273.8117319914 Ry
Begin final coordinates

ATOMIC_POSITIONS (alat)
Nb            0.5000000000       -0.0022783195        0.2157641829
Nb            0.0000000000        0.3545634703        0.2508983756
C             1.1379637197       -0.0023007627        0.0065403318
C             1.8620362803       -0.0023007627        0.0065403312
C             1.3620349349        0.3545856067        0.4601283886
C             1.6379650651        0.3545856067        0.4601283903
End final coordinates

     Writing output data file /home/fernando/serse/temp/NB.save/

     General routines

     Parallel routines

   This run was terminated on:  14: 6:43  21Jan2025

   JOB DONE.