     Program PWSCF v.6.8 starts on 16Jan2025 at 17:47:41

     R & G space division:  proc/nbgrp/npool/nimage =      24

     Waiting for input...
     Reading input from standard input

     Current dimensions of program PWSCF are:
     Max number of different atomic species (ntypx) = 10
     Max number of k-points (npk) =  40000
     Max angular momentum in pseudopotentials (lmaxx) =  4
     Message from routine setup:
     no reason to have ecutrho>4*ecutwfc
     Message from routine setup:
     using ibrav=0 with symmetry is DISCOURAGED, use correct ibrav instead

     Subspace diagonalization in iterative solution of the eigenvalue problem:
     a serial algorithm will be used

     Using Slab Decomposition

     Title:
     NB relax

     bravais-lattice index     =            0
     lattice parameter (alat)  =       9.3730  a.u.
     unit-cell volume          =    3526.2142 (a.u.)^3
     number of atoms/cell      =            6
     number of atomic types    =            2
     number of electrons       =        42.00
     number of Kohn-Sham states=           25
     kinetic-energy cutoff     =      70.0000  Ry
     charge density cutoff     =     400.0000  Ry
     scf convergence threshold =      1.0E-08
     mixing beta               =       0.7000
     number of iterations used =            8  plain     mixing
     energy convergence thresh.=      1.0E-05
     force convergence thresh. =      1.0E-04
     Exchange-correlation= SLA-PW-PBX-PBC
                           (   1   4   3   4   0   0   0)
     nstep                     =          100

     celldm(1)=   9.373000  celldm(2)=   0.000000  celldm(3)=   0.000000
     celldm(4)=   0.000000  celldm(5)=   0.000000  celldm(6)=   0.000000

     crystal axes: (cart. coord. in units of alat)
               a(1) = (   1.000000   0.000000   0.000000 )
               a(2) = (   0.000000   0.713710   0.000000 )
               a(3) = (   0.000000   0.000000   6.000000 )

     reciprocal axes: (cart. coord. in units 2 pi/alat)
               b(1) = (  1.000000  0.000000  0.000000 )
               b(2) = (  0.000000  1.401130  0.000000 )
               b(3) = (  0.000000  0.000000  0.166667 )

     PseudoPot. # 1 for Nb read from file:
     /home/fernando/serse/pseudos/Nb.pbe-sp-hgh.UPF
     MD5 check sum: 9806bd744c6e87f68d8a90a6c9e3b9fe
     Pseudo is Norm-conserving, Zval = 13.0
     Generated in analytical, separable form
     Using radial grid of 1227 points,  6 beta functions with:
                l(1) =   0
                l(2) =   0
                l(3) =   1
                l(4) =   1
                l(5) =   2
                l(6) =   2

     PseudoPot. # 2 for C  read from file:
     /home/fernando/serse/pseudos/C.pbe-hgh.UPF
     MD5 check sum: ca26ff84b356733038fc2f5c468d1892
     Pseudo is Norm-conserving, Zval =  4.0
     Generated in analytical, separable form
     Using radial grid of 1073 points,  1 beta functions with:
                l(1) =   0

     atomic species   valence    mass     pseudopotential
        Nb            13.00    92.90638     Nb( 1.00)
        C              4.00    12.01100     C ( 1.00)

      2 Sym. Ops. (no inversion) found

   Cartesian axes

     site n.     atom                  positions (alat units)
         1           Nb  tau(   1) = (   0.5000000   0.0000000   0.4000000  )
         2           Nb  tau(   2) = (   0.0000000   0.3568548   0.2000000  )
         3           C   tau(   3) = (   1.2500000   0.0000000   0.0000000  )
         4           C   tau(   4) = (   1.7500000   0.0000000   0.0000000  )
         5           C   tau(   5) = (   1.4000000   0.3500000   0.4000000  )
         6           C   tau(   6) = (   1.6000000   0.3500000   0.4000000  )

     number of k points=     9  Gaussian smearing, width (Ry)=  0.0100
                       cart. coord. in units 2pi/alat
        k(    1) = (   0.0000000   0.0000000   0.0000000), wk =   0.0800000
        k(    2) = (   0.0000000   0.2802260   0.0000000), wk =   0.1600000
        k(    3) = (   0.0000000   0.5604520   0.0000000), wk =   0.1600000
        k(    4) = (   0.2000000   0.0000000   0.0000000), wk =   0.1600000
        k(    5) = (   0.2000000   0.2802260   0.0000000), wk =   0.3200000
        k(    6) = (   0.2000000   0.5604520   0.0000000), wk =   0.3200000
        k(    7) = (   0.4000000   0.0000000   0.0000000), wk =   0.1600000
        k(    8) = (   0.4000000   0.2802260   0.0000000), wk =   0.3200000
        k(    9) = (   0.4000000   0.5604520   0.0000000), wk =   0.3200000

     Initial potential from superposition of free atoms

     starting charge   15.99983, renormalised to   42.00000

     negative rho (up, down):  1.103E-05 0.000E+00
     Starting wfcs are   16 randomized atomic wfcs +    9 random wfcs

     Self-consistent Calculation

     iteration #  1     ecut=    70.00 Ry     beta= 0.70
     Davidson diagonalization with overlap
     c_bands:  1 eigenvalues not converged
     ethr =  1.00E-02,  avg # of iterations = 18.6

     negative rho (up, down):  9.214E-08 0.000E+00

     total energy              =    -159.61972566 Ry
     estimated scf accuracy    <     436.40228426 Ry

     iteration #  2     ecut=    70.00 Ry     beta= 0.70
     Davidson diagonalization with overlap
     ethr =  1.00E-02,  avg # of iterations = 12.8

[...]

     End of self-consistent calculation

          k = 0.0000 0.0000 0.0000 ( 34913 PWs)   bands (ev):

   -59.6261 -59.3286 -35.7184 -34.6796 -34.5599 -34.3003 -34.2350 -34.0268
   -21.7032 -13.0478 -10.0922  -9.4231  -8.8841  -8.4220  -6.7942  -6.4313
    -5.5733  -4.5766  -4.1671  -3.5563  -2.9134  -2.4449  -1.9937  -1.4838
    -0.2900

[...]

     the Fermi energy is    -2.5789 ev

!    total energy              =    -272.49803199 Ry
     estimated scf accuracy    <          6.7E-09 Ry
     smearing contrib. (-TS)   =      -0.00224142 Ry
     internal energy E=F+TS    =    -272.49579057 Ry

     The total energy is F=E-TS. E is the sum of the following terms:
     one-electron contribution =   -2729.93691144 Ry
     hartree contribution      =    1360.14800740 Ry
     xc contribution           =     -41.48921103 Ry
     ewald contribution        =    1138.78232449 Ry

     convergence has been achieved in  24 iterations

     Forces acting on atoms (cartesian axes, Ry/au):

     atom    1 type  1   force =     0.00000000   -0.15007020   -0.17494712
     atom    2 type  1   force =     0.00000000   -0.00399374   -0.09903690
     atom    3 type  2   force =    -0.01786841   -0.00089957    0.08449884
     atom    4 type  2   force =     0.01786841   -0.00089957    0.08449884
     atom    5 type  2   force =    -2.04051915    0.07793154    0.05249317
     atom    6 type  2   force =     2.04051915    0.07793154    0.05249317

     Total force =     2.902235     Total SCF correction =     0.000096

     BFGS Geometry Optimization
     Energy error            =      0.0E+00 Ry
     Gradient error          =      2.0E+00 Ry/Bohr

     number of scf cycles    =   1
     number of bfgs steps    =   0

     energy             new  =    -272.4980319910 Ry

     new trust radius        =       0.5000000000 bohr
     new conv_thr            =       0.0000000100 Ry

ATOMIC_POSITIONS (alat)
Nb            0.5000000000       -0.0039190898        0.3954312484
Nb            0.0000000000        0.3567505421        0.1974136469
C             1.2495333656       -0.0000234924        0.0022066909
C             1.7504666344       -0.0000234924        0.0022066909
C             1.3467117534        0.3520351855        0.4013708614
C             1.6532882466        0.3520351855        0.4013708614

     Writing output data file /home/fernando/serse/temp/NB.save/
     NEW-OLD atomic charge density approx. for the potential

[...]

     Total force =     0.297673     Total SCF correction =     0.000153
     Energy error            =      5.9E-01 Ry
     Gradient error          =      1.7E-01 Ry/Bohr

[...]

     energy             old  =    -272.4980319910 Ry
     energy             new  =    -273.0879608274 Ry

     CASE: energy            _new < energy            _old

[...]

     WARNING: bfgs curvature condition failed, Theta= 0.694
     new trust radius        =       0.1927478022 bohr
     new conv_thr            =       0.0000000100 Ry

[...]

     CASE: energy            _new > energy            _old

[...]

     WARNING: info= 10 for Hessian
     uphill step: resetting bfgs history

[...]

     WARNING: bfgs curvature condition failed, Theta= 0.799
     new trust radius        =       0.3759064653 bohr
     new conv_thr            =       0.0000000100 Ry

[...]

     iteration #  3     ecut=    70.00 Ry     beta= 0.70
     Davidson diagonalization with overlap
     c_bands:  1 eigenvalues not converged
     ethr =  4.81E-06,  avg # of iterations =  9.9

[...]

     negative rho (up, down):  1.843E-08 0.000E+00

[...]

     Threshold (ethr) on eigenvalues was too large:
     Diagonalizing with lowered threshold

     Davidson diagonalization with overlap
     ethr =  4.55E-08,  avg # of iterations =  2.0

[...]

     number of scf cycles    =  30
     number of bfgs steps    =  28

     energy             old  =    -273.7539735861 Ry
     energy             new  =    -273.7539737483 Ry

     CASE: energy            _new < energy            _old

     new trust radius        =       0.0002372438 bohr
     new conv_thr            =            1.0E-10 Ry

ATOMIC_POSITIONS (alat)
Nb            0.5000000000       -0.0022776697        0.2154592030
Nb            0.0000000000        0.3545576639        0.2512002809
C             1.1378722060       -0.0022987080        0.0060616136
C             1.8621277940       -0.0022987080        0.0060616130
C             1.3621282550        0.3545861303        0.4606086441
C             1.6378717450        0.3545861303        0.4606086458

     Writing output data file /home/fernando/serse/temp/NB.save/
     NEW-OLD atomic charge density approx. for the potential

     Self-consistent Calculation

[...]

     Threshold (ethr) on eigenvalues was too large:
     Diagonalizing with lowered threshold

     Davidson diagonalization with overlap
     ethr =  2.17E-08,  avg # of iterations =  2.0

[...]

     total energy              =    -273.75397377 Ry
     estimated scf accuracy    <          2.8E-10 Ry

     iteration # 10     ecut=    70.00 Ry     beta= 0.70
     Davidson diagonalization with overlap
     ethr =  5.38E-13,  avg # of iterations =  2.3

     End of self-consistent calculation

[...]

          k = 0.4000 0.5605 0.0000 ( 34919 PWs)   bands (ev):

   -59.7297 -59.7198 -35.1387 -35.1010 -34.7299 -34.7148 -34.4927 -34.4316
   -17.4141 -17.3809 -10.8768 -10.7441  -7.6414  -7.4079  -7.1185  -6.9293
    -6.4258  -6.3954  -4.9086  -4.3120  -4.1870  -3.6833  -1.2677  -1.0919
    -0.1042

     the Fermi energy is    -2.8600 ev

!    total energy              =    -273.75397377 Ry
     estimated scf accuracy    <          2.3E-11 Ry
     smearing contrib. (-TS)   =      -0.00177640 Ry
     internal energy E=F+TS    =    -273.75219737 Ry

     The total energy is F=E-TS. E is the sum of the following terms:
     one-electron contribution =   -2744.29762072 Ry
     hartree contribution      =    1366.54946445 Ry
     xc contribution           =     -41.16093429 Ry
     ewald contribution        =    1145.15689319 Ry

     convergence has been achieved in  10 iterations

     Forces acting on atoms (cartesian axes, Ry/au):

     atom    1 type  1   force =     0.00000000    0.00000162    0.00001977
     atom    2 type  1   force =     0.00000000    0.00002626    0.00004069
     atom    3 type  2   force =     0.00001479   -0.00000451   -0.00001960
     atom    4 type  2   force =    -0.00001479   -0.00000451   -0.00001960
     atom    5 type  2   force =    -0.00003320   -0.00000943   -0.00001063
     atom    6 type  2   force =     0.00003320   -0.00000943   -0.00001063

     Total force =     0.000081     Total SCF correction =     0.000007
     Energy error            =      1.9E-08 Ry
     Gradient error          =      4.1E-05 Ry/Bohr

     bfgs converged in  31 scf cycles and  29 bfgs steps
     (criteria: energy <  1.0E-05 Ry, force <  1.0E-04 Ry/Bohr)

     End of BFGS Geometry Optimization

     Final energy             =    -273.7539737674 Ry

     File /home/fernando/serse/temp/NB.bfgs deleted, as requested
Begin final coordinates

ATOMIC_POSITIONS (alat)
Nb            0.5000000000       -0.0022776697        0.2154592030
Nb            0.0000000000        0.3545576639        0.2512002809
C             1.1378722060       -0.0022987080        0.0060616136
C             1.8621277940       -0.0022987080        0.0060616130
C             1.3621282550        0.3545861303        0.4606086441
C             1.6378717450        0.3545861303        0.4606086458
End final coordinates

     Writing output data file /home/fernando/serse/temp/NB.save/

     General routines

     Parallel routines

   This run was terminated on:  17:55:36  16Jan2025

   JOB DONE.