     Program PWSCF v.6.8 starts on 16Jan2025 at 17:43:22

     R & G space division:  proc/nbgrp/npool/nimage =      24

     Waiting for input...
     Reading input from standard input

     Current dimensions of program PWSCF are:
     Max number of different atomic species (ntypx) = 10
     Max number of k-points (npk) =  40000
     Max angular momentum in pseudopotentials (lmaxx) =  4
     Message from routine setup:
     no reason to have ecutrho>4*ecutwfc
     Message from routine setup:
     using ibrav=0 with symmetry is DISCOURAGED, use correct ibrav instead

     Subspace diagonalization in iterative solution of the eigenvalue problem:
     a serial algorithm will be used

     Using Slab Decomposition

     Title:
     NB relax

     bravais-lattice index     =            0
     lattice parameter (alat)  =       9.3730  a.u.
     unit-cell volume          =    2350.8095 (a.u.)^3
     number of atoms/cell      =            6
     number of atomic types    =            2
     number of electrons       =        42.00
     number of Kohn-Sham states=           25
     kinetic-energy cutoff     =      60.0000  Ry
     charge density cutoff     =     400.0000  Ry
     scf convergence threshold =      1.0E-08
     mixing beta               =       0.7000
     number of iterations used =            8  plain     mixing
     energy convergence thresh.=      1.0E-05
     force convergence thresh. =      1.0E-04
     Exchange-correlation= SLA-PW-PBX-PBC
                           (   1   4   3   4   0   0   0)
     nstep                     =          100

     celldm(1)=   9.373000  celldm(2)=   0.000000  celldm(3)=   0.000000
     celldm(4)=   0.000000  celldm(5)=   0.000000  celldm(6)=   0.000000

     crystal axes: (cart. coord. in units of alat)
               a(1) = (   1.000000   0.000000   0.000000 )
               a(2) = (   0.000000   0.713710   0.000000 )
               a(3) = (   0.000000   0.000000   4.000000 )

     reciprocal axes: (cart. coord. in units 2 pi/alat)
               b(1) = (  1.000000  0.000000  0.000000 )
               b(2) = (  0.000000  1.401130  0.000000 )
               b(3) = (  0.000000  0.000000  0.250000 )

     PseudoPot. # 1 for Nb read from file:
     /home/fernando/serse/pseudos/Nb.pbe-sp-hgh.UPF
     MD5 check sum: 9806bd744c6e87f68d8a90a6c9e3b9fe
     Pseudo is Norm-conserving, Zval = 13.0
     Generated in analytical, separable form
     Using radial grid of 1227 points,  6 beta functions with:
                l(1) =   0
                l(2) =   0
                l(3) =   1
                l(4) =   1
                l(5) =   2
                l(6) =   2

     PseudoPot. # 2 for C  read from file:
     /home/fernando/serse/pseudos/C.pbe-hgh.UPF
     MD5 check sum: ca26ff84b356733038fc2f5c468d1892
     Pseudo is Norm-conserving, Zval =  4.0
     Generated in analytical, separable form
     Using radial grid of 1073 points,  1 beta functions with:
                l(1) =   0

     atomic species   valence    mass     pseudopotential
        Nb            13.00    92.90638     Nb( 1.00)
        C              4.00    12.01100     C ( 1.00)

      2 Sym. Ops. (no inversion) found

   Cartesian axes

     site n.     atom                  positions (alat units)
         1           Nb  tau(   1) = (   0.5000000   0.0000000   0.4000000  )
         2           Nb  tau(   2) = (   0.0000000   0.3568548   0.2000000  )
         3           C   tau(   3) = (   1.2500000   0.0000000   0.0000000  )
         4           C   tau(   4) = (   1.7500000   0.0000000   0.0000000  )
         5           C   tau(   5) = (   1.4000000   0.3500000   0.4000000  )
         6           C   tau(   6) = (   1.6000000   0.3500000   0.4000000  )

     number of k points=     9  Gaussian smearing, width (Ry)=  0.0100
                       cart. coord. in units 2pi/alat
        k(    1) = (   0.0000000   0.0000000   0.0000000), wk =   0.0800000
        k(    2) = (   0.0000000   0.2802260   0.0000000), wk =   0.1600000
        k(    3) = (   0.0000000   0.5604520   0.0000000), wk =   0.1600000
        k(    4) = (   0.2000000   0.0000000   0.0000000), wk =   0.1600000
        k(    5) = (   0.2000000   0.2802260   0.0000000), wk =   0.3200000
        k(    6) = (   0.2000000   0.5604520   0.0000000), wk =   0.3200000
        k(    7) = (   0.4000000   0.0000000   0.0000000), wk =   0.1600000
        k(    8) = (   0.4000000   0.2802260   0.0000000), wk =   0.3200000
        k(    9) = (   0.4000000   0.5604520   0.0000000), wk =   0.3200000

     Initial potential from superposition of free atoms

     starting charge   15.99983, renormalised to   42.00000

     negative rho (up, down):  6.786E-06 0.000E+00
     Starting wfcs are   16 randomized atomic wfcs +    9 random wfcs

     Self-consistent Calculation

     iteration #  1     ecut=    60.00 Ry     beta= 0.70
     Davidson diagonalization with overlap
     c_bands:  2 eigenvalues not converged
     ethr =  1.00E-02,  avg # of iterations = 17.9

     total energy              =    -161.27143299 Ry
     estimated scf accuracy    <     430.71821284 Ry

     iteration #  2     ecut=    60.00 Ry     beta= 0.70
     Davidson diagonalization with overlap
     ethr =  1.00E-02,  avg # of iterations = 12.0

     negative rho (up, down):  2.962E-06 0.000E+00

[...]

     End of self-consistent calculation

          k = 0.0000 0.0000 0.0000 ( 18467 PWs)   bands (ev):

   -58.4225 -58.1283 -34.5143 -33.4699 -33.3492 -33.0900 -33.0271 -32.8194
   -20.4949 -11.8488  -8.8898  -8.2051  -7.6728  -7.2043  -5.5825  -5.2248
    -4.3491  -3.3728  -2.9579  -2.3447  -1.6985  -1.2334  -0.7626  -0.2528
     0.9259

[...]

     the Fermi energy is    -1.3683 ev

!    total energy              =    -272.42039388 Ry
     estimated scf accuracy    <          5.9E-09 Ry
     smearing contrib. (-TS)   =      -0.00224654 Ry
     internal energy E=F+TS    =    -272.41814734 Ry

     The total energy is F=E-TS. E is the sum of the following terms:
     one-electron contribution =   -1642.10265299 Ry
     hartree contribution      =     818.09030915 Ry
     xc contribution           =     -41.47954880 Ry
     ewald contribution        =     593.07374530 Ry

     convergence has been achieved in  26 iterations

     Forces acting on atoms (cartesian axes, Ry/au):

     atom    1 type  1   force =     0.00000000   -0.15019421   -0.17293089
     atom    2 type  1   force =     0.00000000   -0.00396813   -0.09700533
     atom    3 type  2   force =    -0.01764319   -0.00088212    0.08263866
     atom    4 type  2   force =     0.01764319   -0.00088212    0.08263866
     atom    5 type  2   force =    -2.05662457    0.07796329    0.05232945
     atom    6 type  2   force =     2.05662457    0.07796329    0.05232945

     Total force =     2.924588     Total SCF correction =     0.000093

     BFGS Geometry Optimization
     Energy error            =      0.0E+00 Ry
     Gradient error          =      2.1E+00 Ry/Bohr

     number of scf cycles    =   1
     number of bfgs steps    =   0

     energy             new  =    -272.4203938781 Ry

     new trust radius        =       0.5000000000 bohr
     new conv_thr            =       0.0000000100 Ry

ATOMIC_POSITIONS (alat)
Nb            0.5000000000       -0.0038916824        0.3955191874
Nb            0.0000000000        0.3567520205        0.1974864947
C             1.2495428474       -0.0000228567        0.0021412506
C             1.7504571526       -0.0000228567        0.0021412506
C             1.3467107971        0.3520201070        0.4013559084
C             1.6532892029        0.3520201070        0.4013559084

     Writing output data file /home/fernando/serse/temp/NB.save/
     NEW-OLD atomic charge density approx. for the potential

[...]

     Total force =     0.294987     Total SCF correction =     0.000109
     Energy error            =      5.9E-01 Ry
     Gradient error          =      1.7E-01 Ry/Bohr

[...]

     energy             old  =    -272.4203938781 Ry
     energy             new  =    -273.0147395849 Ry

     CASE: energy            _new < energy            _old

[...]

     WARNING: bfgs curvature condition failed, Theta= 0.686
     uphill step: resetting bfgs history

[...]

     WARNING: bfgs curvature condition failed, Theta= 0.985
     new trust radius        =       0.2833815339 bohr
     new conv_thr            =       0.0000000100 Ry

[...]

     WARNING: bfgs curvature condition failed, Theta= 0.504
     new trust radius        =       0.2986184955 bohr
     new conv_thr            =       0.0000000100 Ry

[...]

     negative rho (up, down):  7.583E-08 0.000E+00

[...]

     iteration #  1     ecut=    60.00 Ry     beta= 0.70
     Davidson diagonalization with overlap
     c_bands:  1 eigenvalues not converged
     ethr =  1.00E-06,  avg # of iterations = 11.0

[...]

     number of scf cycles    =  28
     number of bfgs steps    =  27

     energy             old  =    -273.6817162559 Ry
     energy             new  =    -273.6817172142 Ry

     CASE: energy            _new < energy            _old

     new trust radius        =       0.0004084129 bohr
     new conv_thr            =            1.0E-10 Ry

ATOMIC_POSITIONS (alat)
Nb            0.5000000000       -0.0022679126        0.2161456499
Nb            0.0000000000        0.3545667847        0.2505154450
C             1.1382522840       -0.0022927184        0.0057812982
C             1.8617477160       -0.0022927184        0.0057812982
C             1.3617516491        0.3545707018        0.4608881544
C             1.6382483509        0.3545707018        0.4608881544

     Writing output data file /home/fernando/serse/temp/NB.save/
     NEW-OLD atomic charge density approx. for the potential

     Self-consistent Calculation

[...]

     Threshold (ethr) on eigenvalues was too large:
     Diagonalizing with lowered threshold

     Davidson diagonalization with overlap
     ethr =  3.28E-08,  avg # of iterations =  2.0

[...]

     total energy              =    -273.68171732 Ry
     estimated scf accuracy    <          2.1E-10 Ry

     iteration # 10     ecut=    60.00 Ry     beta= 0.70
     Davidson diagonalization with overlap
     ethr =  5.05E-13,  avg # of iterations =  1.6

     End of self-consistent calculation

[...]

          k = 0.4000 0.5605 0.0000 ( 18424 PWs)   bands (ev):

   -58.4946 -58.4847 -33.8985 -33.8605 -33.4883 -33.4731 -33.2500 -33.1887
   -16.1554 -16.1225  -9.6426  -9.5100  -6.3869  -6.1497  -5.8702  -5.6848
    -5.1657  -5.1358  -3.6710  -3.0793  -2.9459  -2.4457  -0.0207   0.1482
     1.1404

     the Fermi energy is    -1.6214 ev

!    total energy              =    -273.68171732 Ry
     estimated scf accuracy    <          3.3E-11 Ry
     smearing contrib. (-TS)   =      -0.00178091 Ry
     internal energy E=F+TS    =    -273.67993641 Ry

     The total energy is F=E-TS. E is the sum of the following terms:
     one-electron contribution =   -1654.12761374 Ry
     hartree contribution      =     823.37292337 Ry
     xc contribution           =     -41.14220413 Ry
     ewald contribution        =     598.21695809 Ry

     convergence has been achieved in  10 iterations

     Forces acting on atoms (cartesian axes, Ry/au):

     atom    1 type  1   force =     0.00000000   -0.00006750    0.00000429
     atom    2 type  1   force =     0.00000000   -0.00000322   -0.00000955
     atom    3 type  2   force =    -0.00000874    0.00000679    0.00000464
     atom    4 type  2   force =     0.00000874    0.00000679    0.00000464
     atom    5 type  2   force =    -0.00006309    0.00002857   -0.00000201
     atom    6 type  2   force =     0.00006309    0.00002857   -0.00000201

     Total force =     0.000121     Total SCF correction =     0.000009
     Energy error            =      1.0E-07 Ry
     Gradient error          =      6.8E-05 Ry/Bohr

     bfgs converged in  29 scf cycles and  28 bfgs steps
     (criteria: energy <  1.0E-05 Ry, force <  1.0E-04 Ry/Bohr)

     End of BFGS Geometry Optimization

     Final energy             =    -273.6817173162 Ry

     File /home/fernando/serse/temp/NB.bfgs deleted, as requested
Begin final coordinates

ATOMIC_POSITIONS (alat)
Nb            0.5000000000       -0.0022679126        0.2161456499
Nb            0.0000000000        0.3545667847        0.2505154450
C             1.1382522840       -0.0022927184        0.0057812982
C             1.8617477160       -0.0022927184        0.0057812982
C             1.3617516491        0.3545707018        0.4608881544
C             1.6382483509        0.3545707018        0.4608881544
End final coordinates

     Writing output data file /home/fernando/serse/temp/NB.save/

     General routines

     Parallel routines

   This run was terminated on:  17:47: 1  16Jan2025

   JOB DONE.