     Program PWSCF v.6.8 starts on 16Jan2025 at 18:10:44

     R & G space division:  proc/nbgrp/npool/nimage =      24

     Waiting for input...
     Reading input from standard input

     Current dimensions of program PWSCF are:
     Max number of different atomic species (ntypx) = 10
     Max number of k-points (npk) =  40000
     Max angular momentum in pseudopotentials (lmaxx) =  4
     Message from routine setup:
     no reason to have ecutrho>4*ecutwfc
     Message from routine setup:
     using ibrav=0 with symmetry is DISCOURAGED, use correct ibrav instead

     Subspace diagonalization in iterative solution of the eigenvalue problem:
     a serial algorithm will be used

     Using Slab Decomposition

     Title:
     NB relax

     bravais-lattice index     =            0
     lattice parameter (alat)  =       9.3730  a.u.
     unit-cell volume          =    3526.2142 (a.u.)^3
     number of atoms/cell      =            6
     number of atomic types    =            2
     number of electrons       =        42.00
     number of Kohn-Sham states=           25
     kinetic-energy cutoff     =      80.0000  Ry
     charge density cutoff     =     400.0000  Ry
     scf convergence threshold =      1.0E-08
     mixing beta               =       0.7000
     number of iterations used =            8  plain     mixing
     energy convergence thresh.=      1.0E-05
     force convergence thresh. =      1.0E-04
     Exchange-correlation= SLA-PW-PBX-PBC
                           (   1   4   3   4   0   0   0)
     nstep                     =          100

     celldm(1)=   9.373000  celldm(2)=   0.000000  celldm(3)=   0.000000
     celldm(4)=   0.000000  celldm(5)=   0.000000  celldm(6)=   0.000000

     crystal axes: (cart. coord. in units of alat)
               a(1) = (   1.000000   0.000000   0.000000 )
               a(2) = (   0.000000   0.713710   0.000000 )
               a(3) = (   0.000000   0.000000   6.000000 )

     reciprocal axes: (cart. coord. in units 2 pi/alat)
               b(1) = (  1.000000  0.000000  0.000000 )
               b(2) = (  0.000000  1.401130  0.000000 )
               b(3) = (  0.000000  0.000000  0.166667 )

     PseudoPot. # 1 for Nb read from file:
     /home/fernando/serse/pseudos/Nb.pbe-sp-hgh.UPF
     MD5 check sum: 9806bd744c6e87f68d8a90a6c9e3b9fe
     Pseudo is Norm-conserving, Zval = 13.0
     Generated in analytical, separable form
     Using radial grid of 1227 points,  6 beta functions with:
                l(1) =   0
                l(2) =   0
                l(3) =   1
                l(4) =   1
                l(5) =   2
                l(6) =   2

     PseudoPot. # 2 for C  read from file:
     /home/fernando/serse/pseudos/C.pbe-hgh.UPF
     MD5 check sum: ca26ff84b356733038fc2f5c468d1892
     Pseudo is Norm-conserving, Zval =  4.0
     Generated in analytical, separable form
     Using radial grid of 1073 points,  1 beta functions with:
                l(1) =   0

     atomic species   valence    mass     pseudopotential
        Nb            13.00    92.90638     Nb( 1.00)
        C              4.00    12.01100     C ( 1.00)

      2 Sym. Ops. (no inversion) found

   Cartesian axes

     site n.     atom                  positions (alat units)
         1           Nb  tau(   1) = (   0.5000000  -0.0022777   0.2154592  )
         2           Nb  tau(   2) = (   0.0000000   0.3545577   0.2512003  )
         3           C   tau(   3) = (   1.1378722  -0.0022987   0.0060616  )
         4           C   tau(   4) = (   1.8621278  -0.0022987   0.0060616  )
         5           C   tau(   5) = (   1.3621283   0.3545861   0.4606086  )
         6           C   tau(   6) = (   1.6378717   0.3545861   0.4606086  )

     number of k points=     9  Gaussian smearing, width (Ry)=  0.0100
                       cart. coord. in units 2pi/alat
        k(    1) = (   0.0000000   0.0000000   0.0000000), wk =   0.0800000
        k(    2) = (   0.0000000   0.2802260   0.0000000), wk =   0.1600000
        k(    3) = (   0.0000000   0.5604520   0.0000000), wk =   0.1600000
        k(    4) = (   0.2000000   0.0000000   0.0000000), wk =   0.1600000
        k(    5) = (   0.2000000   0.2802260   0.0000000), wk =   0.3200000
        k(    6) = (   0.2000000   0.5604520   0.0000000), wk =   0.3200000
        k(    7) = (   0.4000000   0.0000000   0.0000000), wk =   0.1600000
        k(    8) = (   0.4000000   0.2802260   0.0000000), wk =   0.3200000
        k(    9) = (   0.4000000   0.5604520   0.0000000), wk =   0.3200000

     Initial potential from superposition of free atoms

     starting charge   15.99983, renormalised to   42.00000

     negative rho (up, down):  1.084E-05 0.000E+00
     Starting wfcs are   16 randomized atomic wfcs +    9 random wfcs

     Self-consistent Calculation

     iteration #  1     ecut=    80.00 Ry     beta= 0.70
     Davidson diagonalization with overlap
     c_bands:  1 eigenvalues not converged
     ethr =  1.00E-02,  avg # of iterations = 14.8

     total energy              =    -170.04905947 Ry
     estimated scf accuracy    <     423.83152134 Ry

     iteration #  2     ecut=    80.00 Ry     beta= 0.70
     Davidson diagonalization with overlap
     ethr =  1.00E-02,  avg # of iterations = 13.9

[...]

     negative rho (up, down):  3.387E-02 0.000E+00

[...]

     negative rho (up, down):  1.201E-05 0.000E+00

[...]

     iteration # 23     ecut=    80.00 Ry     beta= 0.70
     Davidson diagonalization with overlap
     c_bands:  1 eigenvalues not converged
     ethr =  8.28E-07,  avg # of iterations =  3.9

[...]

     End of self-consistent calculation

          k = 0.0000 0.0000 0.0000 ( 42769 PWs)   bands (ev):

   -59.7906 -59.6872 -35.0216 -34.9193 -34.8250 -34.6690 -34.6215 -34.2797
   -18.0147 -17.6046 -10.4657  -9.2264  -9.1661  -8.3222  -7.9196  -7.2467
    -6.8883  -6.3526  -6.2824  -1.9099  -1.5195  -1.4776  -0.2263  -0.1789
    -0.1305

[...]

     the Fermi energy is    -2.8635 ev

!    total energy              =    -273.79096930 Ry
     estimated scf accuracy    <          4.0E-09 Ry
     smearing contrib. (-TS)   =      -0.00177588 Ry
     internal energy E=F+TS    =    -273.78919342 Ry

     The total energy is F=E-TS. E is the sum of the following terms:
     one-electron contribution =   -2744.36402949 Ry
     hartree contribution      =    1366.58392215 Ry
     xc contribution           =     -41.16597927 Ry
     ewald contribution        =    1145.15689318 Ry

     convergence has been achieved in  30 iterations

     Forces acting on atoms (cartesian axes, Ry/au):

     atom    1 type  1   force =     0.00000000    0.00000365    0.00103963
     atom    2 type  1   force =     0.00000000    0.00002452   -0.00097550
     atom    3 type  2   force =     0.00110972   -0.00000813    0.00063972
     atom    4 type  2   force =    -0.00110972   -0.00000813    0.00063972
     atom    5 type  2   force =    -0.00113124   -0.00000596   -0.00067178
     atom    6 type  2   force =     0.00113124   -0.00000596   -0.00067178

     Total force =     0.002963     Total SCF correction =     0.000084

     BFGS Geometry Optimization
     Energy error            =      0.0E+00 Ry
     Gradient error          =      1.1E-03 Ry/Bohr

     number of scf cycles    =   1
     number of bfgs steps    =   0

     energy             new  =    -273.7909693034 Ry

     new trust radius        =       0.0013156887 bohr
     new conv_thr            =       0.0000000100 Ry

ATOMIC_POSITIONS (alat)
Nb            0.5000000000       -0.0022772805        0.2155701200
Nb            0.0000000000        0.3545602800        0.2510962053
C             1.1379906010       -0.0022995750        0.0061298648
C             1.8620093990       -0.0022995750        0.0061298642
C             1.3620075633        0.3545854946        0.4605369722
C             1.6379924367        0.3545854946        0.4605369739

     Writing output data file /home/fernando/serse/temp/NB.save/
     NEW-OLD atomic charge density approx. for the potential

[...]

     Total force =     0.002083     Total SCF correction =     0.000104
     Energy error            =      5.0E-06 Ry
     Gradient error          =      1.2E-03 Ry/Bohr

[...]

     energy             old  =    -273.7909693034 Ry
     energy             new  =    -273.7909743137 Ry

     CASE: energy            _new < energy            _old

[...]

     Threshold (ethr) on eigenvalues was too large:
     Diagonalizing with lowered threshold

     Davidson diagonalization with overlap
     ethr =  1.07E-09,  avg # of iterations =  3.4

[...]

     number of scf cycles    =   5
     number of bfgs steps    =   4

     energy             old  =    -273.7909803184 Ry
     energy             new  =    -273.7909804562 Ry

     CASE: energy            _new < energy            _old

     new trust radius        =       0.0002692863 bohr
     new conv_thr            =            1.0E-10 Ry

ATOMIC_POSITIONS (alat)
Nb            0.5000000000       -0.0022772159        0.2159176258
Nb            0.0000000000        0.3545624203        0.2507564289
C             1.1379952180       -0.0022999442        0.0064217014
C             1.8620047820       -0.0022999442        0.0064217008
C             1.3620014116        0.3545847614        0.4602412709
C             1.6379985884        0.3545847614        0.4602412726

     Writing output data file /home/fernando/serse/temp/NB.save/
     NEW-OLD atomic charge density approx. for the potential

     Self-consistent Calculation

[...]

     Threshold (ethr) on eigenvalues was too large:
     Diagonalizing with lowered threshold

     Davidson diagonalization with overlap
     ethr =  5.52E-09,  avg # of iterations =  3.7

[...]

     total energy              =    -273.79098057 Ry
     estimated scf accuracy    <          2.5E-10 Ry

     iteration # 10     ecut=    80.00 Ry     beta= 0.70
     Davidson diagonalization with overlap
     ethr =  5.87E-13,  avg # of iterations =  2.0

     End of self-consistent calculation

[...]

          k = 0.4000 0.5605 0.0000 ( 42575 PWs)   bands (ev):

   -59.7346 -59.7247 -35.1394 -35.1016 -34.7289 -34.7138 -34.4915 -34.4303
   -17.4020 -17.3685 -10.8844 -10.7515  -7.6410  -7.4055  -7.1228  -6.9359
    -6.4247  -6.3954  -4.9156  -4.3170  -4.1902  -3.6853  -1.2735  -1.0979
    -0.1044

     the Fermi energy is    -2.8647 ev

!    total energy              =    -273.79098057 Ry
     estimated scf accuracy    <          3.5E-11 Ry
     smearing contrib. (-TS)   =      -0.00175840 Ry
     internal energy E=F+TS    =    -273.78922217 Ry

     The total energy is F=E-TS. E is the sum of the following terms:
     one-electron contribution =   -2745.00772292 Ry
     hartree contribution      =    1366.90738300 Ry
     xc contribution           =     -41.16864308 Ry
     ewald contribution        =    1145.47976083 Ry

     convergence has been achieved in  10 iterations

     Forces acting on atoms (cartesian axes, Ry/au):

     atom    1 type  1   force =     0.00000000    0.00000024   -0.00009791
     atom    2 type  1   force =     0.00000000    0.00000044    0.00003605
     atom    3 type  2   force =     0.00001635   -0.00000030    0.00005393
     atom    4 type  2   force =    -0.00001635   -0.00000030    0.00005393
     atom    5 type  2   force =     0.00001423   -0.00000003   -0.00002300
     atom    6 type  2   force =    -0.00001423   -0.00000003   -0.00002300

     Total force =     0.000137     Total SCF correction =     0.000009
     Energy error            =      1.1E-07 Ry
     Gradient error          =      9.8E-05 Ry/Bohr

     bfgs converged in   6 scf cycles and   5 bfgs steps
     (criteria: energy <  1.0E-05 Ry, force <  1.0E-04 Ry/Bohr)

     End of BFGS Geometry Optimization

     Final energy             =    -273.7909805659 Ry

     File /home/fernando/serse/temp/NB.bfgs deleted, as requested
Begin final coordinates

ATOMIC_POSITIONS (alat)
Nb            0.5000000000       -0.0022772159        0.2159176258
Nb            0.0000000000        0.3545624203        0.2507564289
C             1.1379952180       -0.0022999442        0.0064217014
C             1.8620047820       -0.0022999442        0.0064217008
C             1.3620014116        0.3545847614        0.4602412709
C             1.6379985884        0.3545847614        0.4602412726
End final coordinates

     Writing output data file /home/fernando/serse/temp/NB.save/

     General routines

     Parallel routines

   This run was terminated on:  18:12: 8  16Jan2025

   JOB DONE.