     Program PWSCF v.6.8 starts on 21Jan2025 at 13:59:36

     R & G space division:  proc/nbgrp/npool/nimage =      24

     Waiting for input...
     Reading input from standard input

     Current dimensions of program PWSCF are:
     Max number of different atomic species (ntypx) = 10
     Max number of k-points (npk) =  40000
     Max angular momentum in pseudopotentials (lmaxx) =  4
     Message from routine setup:
     no reason to have ecutrho>4*ecutwfc

     Subspace diagonalization in iterative solution of the eigenvalue problem:
     a serial algorithm will be used

     Using Slab Decomposition

     Title:
     NB relax

     bravais-lattice index     =            8
     lattice parameter (alat)  =       9.3730  a.u.
     unit-cell volume          =    3554.6992 (a.u.)^3
     number of atoms/cell      =            6
     number of atomic types    =            2
     number of electrons       =        42.00
     number of Kohn-Sham states=           25
     kinetic-energy cutoff     =      90.0000  Ry
     charge density cutoff     =     400.0000  Ry
     scf convergence threshold =      1.0E-08
     mixing beta               =       0.7000
     number of iterations used =            8  plain     mixing
     energy convergence thresh.=      1.0E-05
     force convergence thresh. =      1.0E-04
     Exchange-correlation= SLA-PW-PBX-PBC
                           (   1   4   3   4   0   0   0)
     nstep                     =          100

     celldm(1)=   9.373042  celldm(2)=   0.713710  celldm(3)=   6.048387
     celldm(4)=   0.000000  celldm(5)=   0.000000  celldm(6)=   0.000000

     crystal axes: (cart. coord. in units of alat)
               a(1) = (   1.000000   0.000000   0.000000 )
               a(2) = (   0.000000   0.713710   0.000000 )
               a(3) = (   0.000000   0.000000   6.048387 )

     reciprocal axes: (cart. coord. in units 2 pi/alat)
               b(1) = (  1.000000  0.000000  0.000000 )
               b(2) = (  0.000000  1.401130  0.000000 )
               b(3) = (  0.000000  0.000000  0.165333 )

     PseudoPot. # 1 for Nb read from file:
     /home/fernando/serse/pseudos/Nb.pbe-sp-hgh.UPF
     MD5 check sum: 9806bd744c6e87f68d8a90a6c9e3b9fe
     Pseudo is Norm-conserving, Zval = 13.0
     Generated in analytical, separable form
     Using radial grid of 1227 points,  6 beta functions with:
                l(1) =   0
                l(2) =   0
                l(3) =   1
                l(4) =   1
                l(5) =   2
                l(6) =   2

     PseudoPot. # 2 for C  read from file:
     /home/fernando/serse/pseudos/C.pbe-hgh.UPF
     MD5 check sum: ca26ff84b356733038fc2f5c468d1892
     Pseudo is Norm-conserving, Zval =  4.0
     Generated in analytical, separable form
     Using radial grid of 1073 points,  1 beta functions with:
                l(1) =   0

     atomic species   valence    mass     pseudopotential
        Nb            13.00    92.90638     Nb( 1.00)
        C              4.00    12.01100     C ( 1.00)

      2 Sym. Ops. (no inversion) found

   Cartesian axes

     site n.     atom                  positions (alat units)
         1           Nb  tau(   1) = (   0.5000000  -0.0022777   0.2154592  )
         2           Nb  tau(   2) = (   0.0000000   0.3545577   0.2512003  )
         3           C   tau(   3) = (   1.1378722  -0.0022987   0.0060616  )
         4           C   tau(   4) = (   1.8621278  -0.0022987   0.0060616  )
         5           C   tau(   5) = (   1.3621283   0.3545861   0.4606086  )
         6           C   tau(   6) = (   1.6378717   0.3545861   0.4606086  )

     number of k points=     9  Gaussian smearing, width (Ry)=  0.0100
                       cart. coord. in units 2pi/alat
        k(    1) = (   0.0000000   0.0000000   0.0000000), wk =   0.0800000
        k(    2) = (   0.0000000   0.2802260   0.0000000), wk =   0.1600000
        k(    3) = (   0.0000000   0.5604520   0.0000000), wk =   0.1600000
        k(    4) = (   0.2000000   0.0000000   0.0000000), wk =   0.1600000
        k(    5) = (   0.2000000   0.2802260   0.0000000), wk =   0.3200000
        k(    6) = (   0.2000000   0.5604520   0.0000000), wk =   0.3200000
        k(    7) = (   0.4000000   0.0000000   0.0000000), wk =   0.1600000
        k(    8) = (   0.4000000   0.2802260   0.0000000), wk =   0.3200000
        k(    9) = (   0.4000000   0.5604520   0.0000000), wk =   0.3200000

     Initial potential from superposition of free atoms

     starting charge   15.99983, renormalised to   42.00000

     negative rho (up, down):  1.095E-05 0.000E+00
     Starting wfcs are   16 randomized atomic wfcs +    9 random wfcs

     Self-consistent Calculation

     iteration #  1     ecut=    90.00 Ry     beta= 0.70
     Davidson diagonalization with overlap
     c_bands:  2 eigenvalues not converged
     ethr =  1.00E-02,  avg # of iterations = 15.2

     total energy              =    -170.02531540 Ry
     estimated scf accuracy    <     423.89137846 Ry

     iteration #  2     ecut=    90.00 Ry     beta= 0.70
     Davidson diagonalization with overlap
     ethr =  1.00E-02,  avg # of iterations = 14.7

[...]

     negative rho (up, down):  3.000E-02 0.000E+00

[...]

     negative rho (up, down):  1.762E-05 0.000E+00

[...]

     iteration # 25     ecut=    90.00 Ry     beta= 0.70
     Davidson diagonalization with overlap
     c_bands:  1 eigenvalues not converged
     c_bands:  1 eigenvalues not converged
     ethr =  5.57E-09,  avg # of iterations = 10.1

[...]

     End of self-consistent calculation

          k = 0.0000 0.0000 0.0000 ( 51171 PWs)   bands (ev):

   -59.8165 -59.7130 -35.0416 -34.9393 -34.8450 -34.6891 -34.6415 -34.2998
   -18.0314 -17.6208 -10.4849  -9.2477  -9.1851  -8.3422  -7.9394  -7.2681
    -6.9089  -6.3760  -6.3035  -1.9316  -1.5413  -1.4999  -0.2491  -0.2022
    -0.1545

[...]

     the Fermi energy is    -2.8853 ev

!    total energy              =    -273.81172087 Ry
     estimated scf accuracy    <          2.1E-09 Ry
     smearing contrib. (-TS)   =      -0.00177705 Ry
     internal energy E=F+TS    =    -273.80994382 Ry

     The total energy is F=E-TS. E is the sum of the following terms:
     one-electron contribution =   -2770.87839500 Ry
     hartree contribution      =    1379.81143674 Ry
     xc contribution           =     -41.16841750 Ry
     ewald contribution        =    1158.42543193 Ry

     convergence has been achieved in  30 iterations

     Forces acting on atoms (cartesian axes, Ry/au):

     atom    1 type  1   force =     0.00000000   -0.00000273    0.00049876
     atom    2 type  1   force =     0.00000000    0.00002729   -0.00052270
     atom    3 type  2   force =     0.00090432   -0.00000968    0.00090142
     atom    4 type  2   force =    -0.00090432   -0.00000968    0.00090142
     atom    5 type  2   force =    -0.00093183   -0.00000260   -0.00088945
     atom    6 type  2   force =     0.00093183   -0.00000260   -0.00088945

     Total force =     0.002665     Total SCF correction =     0.000059

     BFGS Geometry Optimization
     Energy error            =      0.0E+00 Ry
     Gradient error          =      9.3E-04 Ry/Bohr

     number of scf cycles    =   1
     number of bfgs steps    =   0

     energy             new  =    -273.8117208733 Ry

     new trust radius        =       0.0012881895 bohr
     new conv_thr            =       0.0000000100 Ry

ATOMIC_POSITIONS (alat)
Nb            0.5000000000       -0.0022779611        0.2155124152
Nb            0.0000000000        0.3545605751        0.2511445147
C             1.1379686873       -0.0022997407        0.0061577848
C             1.8620313127       -0.0022997407        0.0061577842
C             1.3620288390        0.3545858531        0.4605137499
C             1.6379711610        0.3545858531        0.4605137516

     Writing output data file /home/fernando/serse/temp/NB.save/
     NEW-OLD atomic charge density approx. for the potential

[...]

     Threshold (ethr) on eigenvalues was too large:
     Diagonalizing with lowered threshold

     Davidson diagonalization with overlap
     ethr =  5.44E-08,  avg # of iterations =  2.1

[...]

     Total force =     0.002004     Total SCF correction =     0.000077
     Energy error            =      4.3E-06 Ry
     Gradient error          =      7.4E-04 Ry/Bohr

[...]

     energy             old  =    -273.8117208733 Ry
     energy             new  =    -273.8117251455 Ry

     CASE: energy            _new < energy            _old

[...]

     Total force =     0.000156     Total SCF correction =     0.000009
     Energy error            =      4.3E-08 Ry
     Gradient error          =      1.2E-04 Ry/Bohr

     number of scf cycles    =   5
     number of bfgs steps    =   4

     energy             old  =    -273.8117319293 Ry
     energy             new  =    -273.8117319723 Ry

     CASE: energy            _new < energy            _old

     new trust radius        =       0.0001353758 bohr
     new conv_thr            =            1.0E-10 Ry

ATOMIC_POSITIONS (alat)
Nb            0.5000000000       -0.0022783195        0.2157641829
Nb            0.0000000000        0.3545634703        0.2508983756
C             1.1379637197       -0.0023007627        0.0065403318
C             1.8620362803       -0.0023007627        0.0065403312
C             1.3620349349        0.3545856067        0.4601283886
C             1.6379650651        0.3545856067        0.4601283903

     Writing output data file /home/fernando/serse/temp/NB.save/
     NEW-OLD atomic charge density approx. for the potential

     Self-consistent Calculation

[...]

     Threshold (ethr) on eigenvalues was too large:
     Diagonalizing with lowered threshold

     Davidson diagonalization with overlap
     ethr =  3.08E-09,  avg # of iterations =  3.4

[...]

     total energy              =    -273.81173199 Ry
     estimated scf accuracy    <          7.5E-10 Ry

     iteration #  8     ecut=    90.00 Ry     beta= 0.70
     Davidson diagonalization with overlap
     ethr =  1.79E-12,  avg # of iterations =  4.9

     End of self-consistent calculation

[...]

          k = 0.4000 0.5605 0.0000 ( 51310 PWs)   bands (ev):

   -59.7593 -59.7493 -35.1581 -35.1203 -34.7477 -34.7326 -34.5105 -34.4493
   -17.4209 -17.3874 -10.9049 -10.7720  -7.6631  -7.4282  -7.1454  -6.9583
    -6.4472  -6.4181  -4.9361  -4.3359  -4.2108  -3.7046  -1.2951  -1.1183
    -0.1347

     the Fermi energy is    -2.8842 ev

!    total energy              =    -273.81173200 Ry
     estimated scf accuracy    <          7.6E-11 Ry
     smearing contrib. (-TS)   =      -0.00175758 Ry
     internal energy E=F+TS    =    -273.80997442 Ry

     The total energy is F=E-TS. E is the sum of the following terms:
     one-electron contribution =   -2771.66413643 Ry
     hartree contribution      =    1380.20639428 Ry
     xc contribution           =     -41.17263916 Ry
     ewald contribution        =    1158.82040690 Ry

     convergence has been achieved in   8 iterations

     Forces acting on atoms (cartesian axes, Ry/au):

     atom    1 type  1   force =     0.00000000   -0.00000008   -0.00005596
     atom    2 type  1   force =     0.00000000   -0.00000152    0.00006054
     atom    3 type  2   force =     0.00000037    0.00000046    0.00001712
     atom    4 type  2   force =    -0.00000037    0.00000046    0.00001712
     atom    5 type  2   force =     0.00000091    0.00000034   -0.00001940
     atom    6 type  2   force =    -0.00000091    0.00000034   -0.00001940

     Total force =     0.000090     Total SCF correction =     0.000011
     SCF correction compared to forces is large: reduce conv_thr to get better values
     Energy error            =      2.3E-08 Ry
     Gradient error          =      6.1E-05 Ry/Bohr

     bfgs converged in   6 scf cycles and   5 bfgs steps
     (criteria: energy <  1.0E-05 Ry, force <  1.0E-04 Ry/Bohr)

     End of BFGS Geometry Optimization

     Final energy             =    -273.8117319951 Ry

     File /home/fernando/serse/temp/NB.bfgs deleted, as requested
Begin final coordinates

ATOMIC_POSITIONS (alat)
Nb            0.5000000000       -0.0022783195        0.2157641829
Nb            0.0000000000        0.3545634703        0.2508983756
C             1.1379637197       -0.0023007627        0.0065403318
C             1.8620362803       -0.0023007627        0.0065403312
C             1.3620349349        0.3545856067        0.4601283886
C             1.6379650651        0.3545856067        0.4601283903
End final coordinates

     Writing output data file /home/fernando/serse/temp/NB.save/

     General routines

     Parallel routines

   This run was terminated on:  14: 1:11  21Jan2025

   JOB DONE.