     Program PWSCF v.6.8 starts on 29Jan2025 at 12:26:33

     R & G space division:  proc/nbgrp/npool/nimage =      24

     Waiting for input...
     Reading input from standard input

     Current dimensions of program PWSCF are:
     Max number of different atomic species (ntypx) = 10
     Max number of k-points (npk) =  40000
     Max angular momentum in pseudopotentials (lmaxx) =  4
     Message from routine setup:
     no reason to have ecutrho>4*ecutwfc

     Subspace diagonalization in iterative solution of the eigenvalue problem:
     a serial algorithm will be used

     Using Slab Decomposition

     Title:
     NB relax

     bravais-lattice index     =            8
     lattice parameter (alat)  =      18.5949  a.u.
     unit-cell volume          =   13877.5695 (a.u.)^3
     number of atoms/cell      =           24
     number of atomic types    =            2
     number of electrons       =       168.00
     number of Kohn-Sham states=          101
     kinetic-energy cutoff     =      90.0000  Ry
     charge density cutoff     =     400.0000  Ry
     scf convergence threshold =      1.0E-08
     mixing beta               =       0.7000
     number of iterations used =            8  plain     mixing
     energy convergence thresh.=      1.0E-05
     force convergence thresh. =      1.0E-04
     Exchange-correlation= SLA-PW-PBX-PBC
                           (   1   4   3   4   0   0   0)
     nstep                     =          100

     celldm(1)=  18.594910  celldm(2)=   0.713710  celldm(3)=   3.024194
     celldm(4)=   0.000000  celldm(5)=   0.000000  celldm(6)=   0.000000

     crystal axes: (cart. coord. in units of alat)
               a(1) = (   1.000000   0.000000   0.000000 )
               a(2) = (   0.000000   0.713710   0.000000 )
               a(3) = (   0.000000   0.000000   3.024194 )

     reciprocal axes: (cart. coord. in units 2 pi/alat)
               b(1) = (  1.000000  0.000000  0.000000 )
               b(2) = (  0.000000  1.401130  0.000000 )
               b(3) = (  0.000000  0.000000  0.330667 )

     PseudoPot. # 1 for Nb read from file:
     /home/fernando/serse/pseudos/Nb.pbe-sp-hgh.UPF
     MD5 check sum: 9806bd744c6e87f68d8a90a6c9e3b9fe
     Pseudo is Norm-conserving, Zval = 13.0
     Generated in analytical, separable form
     Using radial grid of 1227 points,  6 beta functions with:
                l(1) =   0
                l(2) =   0
                l(3) =   1
                l(4) =   1
                l(5) =   2
                l(6) =   2

     PseudoPot. # 2 for C  read from file:
     /home/fernando/serse/pseudos/C.pbe-hgh.UPF
     MD5 check sum: ca26ff84b356733038fc2f5c468d1892
     Pseudo is Norm-conserving, Zval =  4.0
     Generated in analytical, separable form
     Using radial grid of 1073 points,  1 beta functions with:
                l(1) =   0

     atomic species   valence    mass     pseudopotential
        Nb            13.00    92.90638     Nb( 1.00)
        C              4.00    12.01100     C ( 1.00)

     No symmetry found

   Cartesian axes

     site n.     atom                  positions (alat units)
         1           Nb  tau(   1) = (   0.0037189   0.1808829   0.1260840  )
         2           Nb  tau(   2) = (   0.5037326   0.1808850   0.1262172  )
         3           Nb  tau(   3) = (   0.2537058   0.3593399   0.1090438  )
         4           Nb  tau(   4) = (   0.7537471   0.3593418   0.1090777  )
         5           Nb  tau(   5) = (   0.0037195   0.5377452   0.1261030  )
         6           Nb  tau(   6) = (   0.5037329   0.5377468   0.1262373  )
         7           Nb  tau(   7) = (   0.2537062   0.7162010   0.1090621  )
         8           Nb  tau(   8) = (   0.7537484   0.7162025   0.1090945  )
         9           C   tau(   9) = (   0.1843732   0.1809293   0.2346987  )
        10           C   tau(  10) = (   0.3229861   0.1809274   0.2347104  )
        11           C   tau(  11) = (   0.6844586   0.1809332   0.2347426  )
        12           C   tau(  12) = (   0.8230736   0.1809260   0.2347138  )
        13           C   tau(  13) = (   0.0730254   0.3593101   0.0004423  )
        14           C   tau(  14) = (   0.4344313   0.3593094   0.0005595  )
        15           C   tau(  15) = (   0.5730395   0.3593136   0.0005628  )
        16           C   tau(  16) = (   0.1843750   0.5377792   0.2347108  )
        17           C   tau(  17) = (   0.3229824   0.5377728   0.2347216  )
        18           C   tau(  18) = (   0.6844636   0.5377804   0.2347518  )
        19           C   tau(  19) = (   0.8230732   0.5377771   0.2347250  )
        20           C   tau(  20) = (   0.9344168   0.3593067   0.0004523  )
        21           C   tau(  21) = (   0.0730271   0.7161572   0.0004523  )
        22           C   tau(  22) = (   0.4344325   0.7161560   0.0005685  )
        23           C   tau(  23) = (   0.5730407   0.7161603   0.0005705  )
        24           C   tau(  24) = (   0.9344178   0.7161544   0.0004612  )

     number of k points=    13  Gaussian smearing, width (Ry)=  0.0100
                       cart. coord. in units 2pi/alat
        k(    1) = (   0.0000000   0.0000000   0.0000000), wk =   0.0800000
        k(    2) = (   0.0000000   0.2802260   0.0000000), wk =   0.1600000
        k(    3) = (   0.0000000   0.5604520   0.0000000), wk =   0.1600000
        k(    4) = (   0.2000000   0.0000000   0.0000000), wk =   0.1600000
        k(    5) = (   0.2000000   0.2802260   0.0000000), wk =   0.1600000
        k(    6) = (   0.2000000   0.5604520   0.0000000), wk =   0.1600000
        k(    7) = (   0.4000000   0.0000000   0.0000000), wk =   0.1600000
        k(    8) = (   0.4000000   0.2802260   0.0000000), wk =   0.1600000
        k(    9) = (   0.4000000   0.5604520   0.0000000), wk =   0.1600000
        k(   10) = (  -0.2000000   0.2802260   0.0000000), wk =   0.1600000
        k(   11) = (  -0.2000000   0.5604520   0.0000000), wk =   0.1600000
        k(   12) = (  -0.4000000   0.2802260   0.0000000), wk =   0.1600000
        k(   13) = (  -0.4000000   0.5604520   0.0000000), wk =   0.1600000

     Initial potential from superposition of free atoms

     starting charge   63.99933, renormalised to  168.00000

     negative rho (up, down):  4.251E-05 0.000E+00
     Starting wfcs are   64 randomized atomic wfcs +   37 random wfcs

     Self-consistent Calculation

     iteration #  1     ecut=    90.00 Ry     beta= 0.70
     Davidson diagonalization with overlap
     c_bands:  1 eigenvalues not converged
     c_bands:  1 eigenvalues not converged
     ethr =  1.00E-02,  avg # of iterations = 17.1

     total energy              =    -679.80161167 Ry
     estimated scf accuracy    <    1709.21183980 Ry

     iteration #  2     ecut=    90.00 Ry     beta= 0.70
     Davidson diagonalization with overlap
     ethr =  1.00E-02,  avg # of iterations = 14.8

[...]

     iteration # 19     ecut=    90.00 Ry     beta= 0.70
     Davidson diagonalization with overlap
     c_bands:  1 eigenvalues not converged
     c_bands:  1 eigenvalues not converged
     c_bands:  2 eigenvalues not converged
     ethr =  1.44E-06,  avg # of iterations = 13.5

[...]

     End of self-consistent calculation

          k = 0.0000 0.0000 0.0000 (199917 PWs)   bands (ev):

   -59.7942 -59.7375 -59.7375 -59.7284 -59.7278 -59.7276 -59.7271 -59.6801
   -35.1807 -35.1806 -35.0512 -34.9661 -34.9660 -34.9211 -34.8247 -34.7648
   -34.7647 -34.7641 -34.7640 -34.7108 -34.7104 -34.7099 -34.7096 -34.6543
   -34.6496 -34.6492 -34.6441 -34.6441 -34.6021 -34.4197 -34.4196 -34.2573
   -18.0449 -17.6901 -17.6899 -17.6344 -17.4936 -17.4934 -17.3975 -17.3973
   -10.9086 -10.9085 -10.5490 -10.4700 -10.4699  -9.8764  -9.8753  -9.2503
    -9.1363  -8.3902  -8.2882  -8.2877  -7.9423  -7.7849  -7.7848  -7.5818
    -7.5817  -7.4579  -7.4578  -7.3092  -7.3085  -7.2536  -7.2096  -7.2096
    -7.0808  -7.0808  -6.8547  -6.3880  -6.2706  -6.1655  -6.1654  -5.9848
    -5.9846  -5.5804  -5.5794  -4.5340  -4.5339  -4.3696  -4.3696  -3.9719
    -3.9718  -3.7610  -3.7608  -2.6010  -2.6008  -1.8072  -1.5087  -1.4565
    -1.3109  -1.3107  -1.2942  -1.2941  -1.1252  -1.1252  -0.9097  -0.9089
    -0.3694  -0.2140  -0.1994  -0.1991  -0.1106

[...]

          k =-0.2000 0.2802 0.0000 (200092 PWs)   bands (ev):

[...]

     the Fermi energy is    -2.8963 ev

!    total energy              =   -1095.25048694 Ry
     estimated scf accuracy    <          8.0E-09 Ry
     smearing contrib. (-TS)   =      -0.00682083 Ry
     internal energy E=F+TS    =   -1095.24366611 Ry

     The total energy is F=E-TS. E is the sum of the following terms:
     one-electron contribution =  -11116.37360535 Ry
     hartree contribution      =    5535.77457329 Ry
     xc contribution           =    -164.75318995 Ry
     ewald contribution        =    4650.10855590 Ry

     convergence has been achieved in  30 iterations

     Forces acting on atoms (cartesian axes, Ry/au):

     atom    1 type  1   force =     0.00000677    0.00002364    0.00059938
     atom    2 type  1   force =    -0.00002858    0.00003661    0.00053505
     atom    3 type  1   force =     0.00013644   -0.00002126   -0.00047557
     atom    4 type  1   force =    -0.00014426   -0.00001401   -0.00044981
     atom    5 type  1   force =    -0.00000493    0.00003934    0.00051935
     atom    6 type  1   force =    -0.00002615    0.00002554    0.00047267
     atom    7 type  1   force =     0.00012746   -0.00004239   -0.00052548
     atom    8 type  1   force =    -0.00013690   -0.00005308   -0.00051692
     atom    9 type  2   force =     0.00012513   -0.00001915   -0.00033459
     atom   10 type  2   force =     0.00002257   -0.00003435   -0.00021892
     atom   11 type  2   force =     0.00000510   -0.00002920   -0.00024258
     atom   12 type  2   force =    -0.00010658   -0.00002246   -0.00031026
     atom   13 type  2   force =    -0.00002028    0.00004057    0.00028557
     atom   14 type  2   force =     0.00004383    0.00003144    0.00021564
     atom   15 type  2   force =    -0.00004896    0.00003509    0.00025761
     atom   16 type  2   force =     0.00007985   -0.00003215   -0.00034648
     atom   17 type  2   force =     0.00006804   -0.00003053   -0.00022206
     atom   18 type  2   force =    -0.00004221   -0.00003044   -0.00023930
     atom   19 type  2   force =    -0.00006481   -0.00004108   -0.00032025
     atom   20 type  2   force =     0.00002141    0.00003695    0.00029134
     atom   21 type  2   force =     0.00001423    0.00002952    0.00027769
     atom   22 type  2   force =     0.00000389    0.00002288    0.00021122
     atom   23 type  2   force =    -0.00002054    0.00002661    0.00025368
     atom   24 type  2   force =    -0.00001051    0.00002192    0.00028304

     Total force =     0.001858     Total SCF correction =     0.000144

     BFGS Geometry Optimization
     Energy error            =      0.0E+00 Ry
     Gradient error          =      6.0E-04 Ry/Bohr

     number of scf cycles    =   1
     number of bfgs steps    =   0

     energy             new  =   -1095.2504869393 Ry

     new trust radius        =       0.0005998842 bohr
     new conv_thr            =       0.0000000100 Ry

ATOMIC_POSITIONS (angstrom)
Nb            0.0365977947        1.7799010587        1.2409839300
Nb            4.9567152945        1.7799281721        1.2422604469
Nb            2.4965377298        3.5358944309        1.0727391738
Nb            7.4167967453        3.5359170374        1.0730871016
Nb            0.0365972949        5.2914348845        1.2411284807
Nb            4.9567190879        5.2914438025        1.2424256240
Nb            2.4965371481        7.0473971561        1.0728936224
Nb            7.4168137097        7.0474060283        1.0732166675
C             1.8142991082        1.7803345168        2.3092582955
C             3.1781964226        1.7803076973        2.3094349507
C             6.7350774649        1.7803674617        2.3097393939
C             8.0989896997        1.7802999772        2.3094204681
C             0.7185595599        3.5356338888        0.0045035597
C             4.2748279910        3.5356223296        0.0056194310
C             5.6386847307        3.5356653715        0.0056738625
C             1.8142924801        5.2917312605        2.3093715941
C             3.1781836437        5.2916697925        2.3095435118
C             6.7351013647        5.2917445531        2.3098321073
C             8.0990084359        5.2917064120        2.3095256221
C             9.1946750432        3.5355982783        0.0046050269
C             0.7185945361        7.0470045686        0.0045971945
C             4.2748194101        7.0469891149        0.0057053701
C             5.6387114346        7.0470336100        0.0057477421
C             9.1946683058        7.0469728649        0.0046879585

     Writing output data file /home/fernando/serse/temp/NB.save/
     NEW-OLD atomic charge density approx. for the potential

[...]

     Threshold (ethr) on eigenvalues was too large:
     Diagonalizing with lowered threshold

     Davidson diagonalization with overlap
     ethr =  7.92E-08,  avg # of iterations =  2.0

[...]

     Total force =     0.001384     Total SCF correction =     0.000142
     SCF correction compared to forces is large: reduce conv_thr to get better values
     Energy error            =      2.8E-06 Ry
     Gradient error          =      4.4E-04 Ry/Bohr

[...]

     energy             old  =   -1095.2504869393 Ry
     energy             new  =   -1095.2504897840 Ry

     CASE: energy            _new < energy            _old

[...]

     Total force =     0.000753     Total SCF correction =     0.000017
     Energy error            =      2.0E-06 Ry
     Gradient error          =      2.5E-04 Ry/Bohr

     number of scf cycles    =   3
     number of bfgs steps    =   2

     energy             old  =   -1095.2504897840 Ry
     energy             new  =   -1095.2504918047 Ry

     CASE: energy            _new < energy            _old

     new trust radius        =       0.0007614928 bohr
     new conv_thr            =            1.0E-10 Ry

ATOMIC_POSITIONS (angstrom)
Nb            0.0366059566        1.7800231510        1.2416084163
Nb            4.9567030634        1.7800266485        1.2428643145
Nb            2.4964689087        3.5359323517        1.0721652529
Nb            7.4168540118        3.5359366490        1.0724666150
Nb            0.0366145701        5.2914054225        1.2416859201
Nb            4.9566983779        5.2914336932        1.2429559576
Nb            2.4964843661        7.0472724926        1.0722433607
Nb            7.4168481036        7.0472914015        1.0725253962
C             1.8145034487        1.7802897802        2.3087690104
C             3.1782234169        1.7802375947        2.3091440120
C             6.7350734425        1.7803004439        2.3094112061
C             8.0988174149        1.7802450343        2.3089766876
C             0.7185076029        3.5357032853        0.0049792674
C             4.2748883339        3.5356835695        0.0059527032
C             5.6386054456        3.5357307176        0.0060690328
C             1.8144846682        5.2916670050        2.3088747419
C             3.1782323792        5.2916111738        2.3092541425
C             6.7350771087        5.2916885475        2.3095122666
C             8.0988335583        5.2916323276        2.3090749962
C             9.1947244570        3.5356612472        0.0050878254
C             0.7184965601        7.0470714746        0.0050623883
C             4.2748965710        7.0470405373        0.0060253706
C             5.6386006083        7.0470899338        0.0061316149
C             9.1947620617        7.0470297858        0.0051606364

     Writing output data file /home/fernando/serse/temp/NB.save/
     NEW-OLD atomic charge density approx. for the potential

     Self-consistent Calculation

[...]

     Threshold (ethr) on eigenvalues was too large:
     Diagonalizing with lowered threshold

     Davidson diagonalization with overlap
     ethr =  8.37E-08,  avg # of iterations =  2.6

[...]

     total energy              =   -1095.25049278 Ry
     estimated scf accuracy    <          1.3E-10 Ry

     iteration # 17     ecut=    90.00 Ry     beta= 0.70
     Davidson diagonalization with overlap
     ethr =  1.00E-13,  avg # of iterations =  2.0

     End of self-consistent calculation

[...]

          k = 0.4000 0.5605 0.0000 (200151 PWs)   bands (ev):

[...]

          k =-0.4000 0.5605 0.0000 (200151 PWs)   bands (ev):

   -59.7703 -59.7602 -59.7572 -59.7497 -59.7103 -59.7059 -59.7029 -59.6956
   -35.1077 -35.0804 -35.0461 -35.0460 -34.9608 -34.8890 -34.8407 -34.8078
   -34.7803 -34.7757 -34.7680 -34.7589 -34.7475 -34.7290 -34.7073 -34.6876
   -34.6834 -34.6763 -34.6672 -34.6288 -34.3945 -34.3932 -34.3882 -34.3529
   -17.7956 -17.7192 -17.6556 -17.5954 -17.5435 -17.5386 -17.4811 -17.4703
   -10.7618 -10.7556 -10.6479 -10.5837 -10.2539 -10.0526  -9.9023  -9.7029
    -8.6217  -8.4659  -8.2347  -8.1224  -7.8993  -7.7616  -7.7488  -7.7013
    -7.5675  -7.5301  -7.4657  -7.3274  -7.2445  -7.1890  -7.1342  -7.1279
    -6.9951  -6.8972  -6.7171  -6.7041  -6.6863  -6.6175  -6.5116  -6.4559
    -5.9462  -5.8381  -5.5328  -5.4619  -3.9741  -3.9212  -3.8258  -3.6913
    -3.2957  -3.2731  -3.1798  -2.9473  -2.9131  -2.8020  -2.4318  -2.2584
    -1.7655  -1.3588  -1.3416  -0.9472  -0.9380  -0.9327  -0.7131  -0.6851
    -0.1926   0.0235   0.1320   0.1361   0.3904

     the Fermi energy is    -2.8952 ev

!    total energy              =   -1095.25049278 Ry
     estimated scf accuracy    <          3.3E-11 Ry
     smearing contrib. (-TS)   =      -0.00681788 Ry
     internal energy E=F+TS    =   -1095.24367491 Ry

     The total energy is F=E-TS. E is the sum of the following terms:
     one-electron contribution =  -11116.88693690 Ry
     hartree contribution      =    5536.03447664 Ry
     xc contribution           =    -164.75852010 Ry
     ewald contribution        =    4650.36730546 Ry

     convergence has been achieved in  17 iterations

     Forces acting on atoms (cartesian axes, Ry/au):

     atom    1 type  1   force =     0.00000802   -0.00000089   -0.00001787
     atom    2 type  1   force =    -0.00000854    0.00000107   -0.00005586
     atom    3 type  1   force =     0.00005152   -0.00003208    0.00005378
     atom    4 type  1   force =    -0.00004208   -0.00002927    0.00005269
     atom    5 type  1   force =     0.00000307    0.00002012   -0.00001224
     atom    6 type  1   force =    -0.00000514    0.00001406   -0.00004830
     atom    7 type  1   force =     0.00004586    0.00001576    0.00005550
     atom    8 type  1   force =    -0.00003681    0.00001160    0.00005424
     atom    9 type  2   force =    -0.00002260   -0.00002155   -0.00003741
     atom   10 type  2   force =     0.00008350   -0.00002526   -0.00002797
     atom   11 type  2   force =    -0.00006099   -0.00002640   -0.00004089
     atom   12 type  2   force =     0.00001229   -0.00002346   -0.00004435
     atom   13 type  2   force =    -0.00002311    0.00001737    0.00004399
     atom   14 type  2   force =    -0.00002129    0.00001549    0.00001443
     atom   15 type  2   force =     0.00000202    0.00001415    0.00001101
     atom   16 type  2   force =     0.00001386   -0.00001591   -0.00003635
     atom   17 type  2   force =     0.00004959   -0.00001248   -0.00002703
     atom   18 type  2   force =    -0.00004387   -0.00001391   -0.00003997
     atom   19 type  2   force =    -0.00000852   -0.00001736   -0.00004388
     atom   20 type  2   force =     0.00002567    0.00001522    0.00003854
     atom   21 type  2   force =     0.00004501    0.00002385    0.00004348
     atom   22 type  2   force =    -0.00005220    0.00002211    0.00001322
     atom   23 type  2   force =     0.00003128    0.00002319    0.00001142
     atom   24 type  2   force =    -0.00004654    0.00002458    0.00003982

     Total force =     0.000282     Total SCF correction =     0.000008
     Energy error            =      9.8E-07 Ry
     Gradient error          =      8.4E-05 Ry/Bohr

     bfgs converged in   4 scf cycles and   3 bfgs steps
     (criteria: energy <  1.0E-05 Ry, force <  1.0E-04 Ry/Bohr)

     End of BFGS Geometry Optimization

     Final energy             =   -1095.2504927848 Ry

     File /home/fernando/serse/temp/NB.bfgs deleted, as requested
Begin final coordinates

ATOMIC_POSITIONS (angstrom)
Nb            0.0366059566        1.7800231510        1.2416084163
Nb            4.9567030634        1.7800266485        1.2428643145
Nb            2.4964689087        3.5359323517        1.0721652529
Nb            7.4168540118        3.5359366490        1.0724666150
Nb            0.0366145701        5.2914054225        1.2416859201
Nb            4.9566983779        5.2914336932        1.2429559576
Nb            2.4964843661        7.0472724926        1.0722433607
Nb            7.4168481036        7.0472914015        1.0725253962
C             1.8145034487        1.7802897802        2.3087690104
C             3.1782234169        1.7802375947        2.3091440120
C             6.7350734425        1.7803004439        2.3094112061
C             8.0988174149        1.7802450343        2.3089766876
C             0.7185076029        3.5357032853        0.0049792674
C             4.2748883339        3.5356835695        0.0059527032
C             5.6386054456        3.5357307176        0.0060690328
C             1.8144846682        5.2916670050        2.3088747419
C             3.1782323792        5.2916111738        2.3092541425
C             6.7350771087        5.2916885475        2.3095122666
C             8.0988335583        5.2916323276        2.3090749962
C             9.1947244570        3.5356612472        0.0050878254
C             0.7184965601        7.0470714746        0.0050623883
C             4.2748965710        7.0470405373        0.0060253706
C             5.6386006083        7.0470899338        0.0061316149
C             9.1947620617        7.0470297858        0.0051606364
End final coordinates

     Writing output data file /home/fernando/serse/temp/NB.save/

     General routines

     Parallel routines

   This run was terminated on:  13:28: 5  29Jan2025

   JOB DONE.