     Program PWSCF v.6.8 starts on 29Jan2025 at 17:26: 9

     R & G space division:  proc/nbgrp/npool/nimage =      24

     Waiting for input...
     Reading input from standard input

     Current dimensions of program PWSCF are:
     Max number of different atomic species (ntypx) = 10
     Max number of k-points (npk) =  40000
     Max angular momentum in pseudopotentials (lmaxx) =  4

     Subspace diagonalization in iterative solution of the eigenvalue problem:
     a serial algorithm will be used

     Using Slab Decomposition

     Title:
     NB relax

     bravais-lattice index     =            8
     lattice parameter (alat)  =      18.5949  a.u.
     unit-cell volume          =   13877.5695 (a.u.)^3
     number of atoms/cell      =           24
     number of atomic types    =            2
     number of electrons       =       168.00
     number of Kohn-Sham states=          101
     kinetic-energy cutoff     =     100.0000  Ry
     charge density cutoff     =     400.0000  Ry
     scf convergence threshold =      1.0E-08
     mixing beta               =       0.7000
     number of iterations used =            8  plain     mixing
     energy convergence thresh.=      1.0E-05
     force convergence thresh. =      1.0E-04
     Exchange-correlation= SLA-PW-PBX-PBC
                           (   1   4   3   4   0   0   0)
     nstep                     =          100

     celldm(1)=  18.594910  celldm(2)=   0.713710  celldm(3)=   3.024194
     celldm(4)=   0.000000  celldm(5)=   0.000000  celldm(6)=   0.000000

     crystal axes: (cart. coord. in units of alat)
               a(1) = (   1.000000   0.000000   0.000000 )
               a(2) = (   0.000000   0.713710   0.000000 )
               a(3) = (   0.000000   0.000000   3.024194 )

     reciprocal axes: (cart. coord. in units 2 pi/alat)
               b(1) = (  1.000000  0.000000  0.000000 )
               b(2) = (  0.000000  1.401130  0.000000 )
               b(3) = (  0.000000  0.000000  0.330667 )

     PseudoPot. # 1 for Nb read from file:
     /home/fernando/serse/pseudos/Nb.pbe-sp-hgh.UPF
     MD5 check sum: 9806bd744c6e87f68d8a90a6c9e3b9fe
     Pseudo is Norm-conserving, Zval = 13.0
     Generated in analytical, separable form
     Using radial grid of 1227 points,  6 beta functions with:
                l(1) =   0
                l(2) =   0
                l(3) =   1
                l(4) =   1
                l(5) =   2
                l(6) =   2

     PseudoPot. # 2 for C  read from file:
     /home/fernando/serse/pseudos/C.pbe-hgh.UPF
     MD5 check sum: ca26ff84b356733038fc2f5c468d1892
     Pseudo is Norm-conserving, Zval =  4.0
     Generated in analytical, separable form
     Using radial grid of 1073 points,  1 beta functions with:
                l(1) =   0

     atomic species   valence    mass     pseudopotential
        Nb            13.00    92.90638     Nb( 1.00)
        C              4.00    12.01100     C ( 1.00)

     No symmetry found

   Cartesian axes

     site n.     atom                  positions (alat units)
         1           Nb  tau(   1) = (   0.0037189   0.1808829   0.1260840  )
         2           Nb  tau(   2) = (   0.5037326   0.1808850   0.1262172  )
         3           Nb  tau(   3) = (   0.2537058   0.3593399   0.1090438  )
         4           Nb  tau(   4) = (   0.7537471   0.3593418   0.1090777  )
         5           Nb  tau(   5) = (   0.0037195   0.5377452   0.1261030  )
         6           Nb  tau(   6) = (   0.5037329   0.5377468   0.1262373  )
         7           Nb  tau(   7) = (   0.2537062   0.7162010   0.1090621  )
         8           Nb  tau(   8) = (   0.7537484   0.7162025   0.1090945  )
         9           C   tau(   9) = (   0.1843732   0.1809293   0.2346987  )
        10           C   tau(  10) = (   0.3229861   0.1809274   0.2347104  )
        11           C   tau(  11) = (   0.6844586   0.1809332   0.2347426  )
        12           C   tau(  12) = (   0.8230736   0.1809260   0.2347138  )
        13           C   tau(  13) = (   0.0730254   0.3593101   0.0004423  )
        14           C   tau(  14) = (   0.4344313   0.3593094   0.0005595  )
        15           C   tau(  15) = (   0.5730395   0.3593136   0.0005628  )
        16           C   tau(  16) = (   0.1843750   0.5377792   0.2347108  )
        17           C   tau(  17) = (   0.3229824   0.5377728   0.2347216  )
        18           C   tau(  18) = (   0.6844636   0.5377804   0.2347518  )
        19           C   tau(  19) = (   0.8230732   0.5377771   0.2347250  )
        20           C   tau(  20) = (   0.9344168   0.3593067   0.0004523  )
        21           C   tau(  21) = (   0.0730271   0.7161572   0.0004523  )
        22           C   tau(  22) = (   0.4344325   0.7161560   0.0005685  )
        23           C   tau(  23) = (   0.5730407   0.7161603   0.0005705  )
        24           C   tau(  24) = (   0.9344178   0.7161544   0.0004612  )

     number of k points=    13  Gaussian smearing, width (Ry)=  0.0100
                       cart. coord. in units 2pi/alat
        k(    1) = (   0.0000000   0.0000000   0.0000000), wk =   0.0800000
        k(    2) = (   0.0000000   0.2802260   0.0000000), wk =   0.1600000
        k(    3) = (   0.0000000   0.5604520   0.0000000), wk =   0.1600000
        k(    4) = (   0.2000000   0.0000000   0.0000000), wk =   0.1600000
        k(    5) = (   0.2000000   0.2802260   0.0000000), wk =   0.1600000
        k(    6) = (   0.2000000   0.5604520   0.0000000), wk =   0.1600000
        k(    7) = (   0.4000000   0.0000000   0.0000000), wk =   0.1600000
        k(    8) = (   0.4000000   0.2802260   0.0000000), wk =   0.1600000
        k(    9) = (   0.4000000   0.5604520   0.0000000), wk =   0.1600000
        k(   10) = (  -0.2000000   0.2802260   0.0000000), wk =   0.1600000
        k(   11) = (  -0.2000000   0.5604520   0.0000000), wk =   0.1600000
        k(   12) = (  -0.4000000   0.2802260   0.0000000), wk =   0.1600000
        k(   13) = (  -0.4000000   0.5604520   0.0000000), wk =   0.1600000

     Initial potential from superposition of free atoms

     starting charge   63.99933, renormalised to  168.00000

     negative rho (up, down):  4.251E-05 0.000E+00
     Starting wfcs are   64 randomized atomic wfcs +   37 random wfcs

     Self-consistent Calculation

     iteration #  1     ecut=   100.00 Ry     beta= 0.70
     Davidson diagonalization with overlap
     ethr =  1.00E-02,  avg # of iterations = 17.0

     total energy              =    -679.79862048 Ry
     estimated scf accuracy    <    1709.25694473 Ry

[...]

     negative rho (up, down):  2.630E-04 0.000E+00

[...]

     iteration # 18     ecut=   100.00 Ry     beta= 0.70
     Davidson diagonalization with overlap
     c_bands:  1 eigenvalues not converged
     c_bands:  2 eigenvalues not converged
     c_bands:  1 eigenvalues not converged
     ethr =  8.28E-06,  avg # of iterations = 10.2

[...]

     negative rho (up, down):  6.382E-08 0.000E+00

[...]

     End of self-consistent calculation

          k = 0.0000 0.0000 0.0000 (234363 PWs)   bands (ev):

   -59.7977 -59.7411 -59.7411 -59.7318 -59.7313 -59.7311 -59.7305 -59.6839
   -35.1808 -35.1808 -35.0513 -34.9662 -34.9662 -34.9214 -34.8250 -34.7650
   -34.7649 -34.7644 -34.7644 -34.7110 -34.7107 -34.7102 -34.7098 -34.6546
   -34.6497 -34.6493 -34.6443 -34.6442 -34.6024 -34.4198 -34.4198 -34.2574
   -18.0444 -17.6892 -17.6890 -17.6336 -17.4927 -17.4925 -17.3963 -17.3960
   -10.9086 -10.9086 -10.5493 -10.4703 -10.4702  -9.8764  -9.8753  -9.2510
    -9.1367  -8.3908  -8.2886  -8.2881  -7.9434  -7.7853  -7.7851  -7.5829
    -7.5827  -7.4581  -7.4580  -7.3100  -7.3092  -7.2540  -7.2106  -7.2106
    -7.0818  -7.0818  -6.8557  -6.3892  -6.2716  -6.1661  -6.1659  -5.9855
    -5.9853  -5.5810  -5.5800  -4.5345  -4.5345  -4.3704  -4.3704  -3.9732
    -3.9731  -3.7617  -3.7616  -2.6019  -2.6016  -1.8082  -1.5095  -1.4577
    -1.3120  -1.3118  -1.2955  -1.2955  -1.1261  -1.1261  -0.9115  -0.9107
    -0.3712  -0.2159  -0.2011  -0.2011  -0.1506

[...]

          k =-0.2000 0.2802 0.0000 (234362 PWs)   bands (ev):

[...]

     the Fermi energy is    -2.8972 ev

!    total energy              =   -1095.29623923 Ry
     estimated scf accuracy    <          5.4E-09 Ry
     smearing contrib. (-TS)   =      -0.00682040 Ry
     internal energy E=F+TS    =   -1095.28941883 Ry

     The total energy is F=E-TS. E is the sum of the following terms:
     one-electron contribution =  -11116.45169249 Ry
     hartree contribution      =    5535.81153256 Ry
     xc contribution           =    -164.75781480 Ry
     ewald contribution        =    4650.10855590 Ry

     convergence has been achieved in  34 iterations

     Forces acting on atoms (cartesian axes, Ry/au):

     atom    1 type  1   force =    -0.00000013    0.00012518    0.00037766
     atom    2 type  1   force =    -0.00003468    0.00011567    0.00029610
     atom    3 type  1   force =     0.00006589   -0.00002803   -0.00031920
     atom    4 type  1   force =    -0.00007933   -0.00002469   -0.00034917
     atom    5 type  1   force =    -0.00000297   -0.00006253    0.00030784
     atom    6 type  1   force =    -0.00001967   -0.00005232    0.00022415
     atom    7 type  1   force =     0.00008097   -0.00003272   -0.00040916
     atom    8 type  1   force =    -0.00008558   -0.00004457   -0.00042566
     atom    9 type  2   force =     0.00168859   -0.00001346   -0.00046916
     atom   10 type  2   force =    -0.00154586   -0.00003197   -0.00035183
     atom   11 type  2   force =     0.00157356   -0.00002544   -0.00037499
     atom   12 type  2   force =    -0.00166851   -0.00002071   -0.00044532
     atom   13 type  2   force =    -0.00158198    0.00003854    0.00047902
     atom   14 type  2   force =     0.00160766    0.00003070    0.00040742
     atom   15 type  2   force =    -0.00161486    0.00003570    0.00044829
     atom   16 type  2   force =     0.00164573   -0.00003416   -0.00047944
     atom   17 type  2   force =    -0.00149376   -0.00003421   -0.00035709
     atom   18 type  2   force =     0.00152074   -0.00003050   -0.00037363
     atom   19 type  2   force =    -0.00163003   -0.00004274   -0.00045343
     atom   20 type  2   force =     0.00158668    0.00003341    0.00048180
     atom   21 type  2   force =    -0.00155608    0.00003065    0.00046767
     atom   22 type  2   force =     0.00157606    0.00002112    0.00040044
     atom   23 type  2   force =    -0.00158957    0.00002537    0.00044453
     atom   24 type  2   force =     0.00155713    0.00002170    0.00047318

     Total force =     0.006673     Total SCF correction =     0.000113

     BFGS Geometry Optimization
     Energy error            =      0.0E+00 Ry
     Gradient error          =      1.7E-03 Ry/Bohr

     number of scf cycles    =   1
     number of bfgs steps    =   0

     energy             new  =   -1095.2962392312 Ry

     new trust radius        =       0.0017526056 bohr
     new conv_thr            =       0.0000000100 Ry

ATOMIC_POSITIONS (angstrom)
Nb            0.0365941412        1.7799547946        1.2408665982
Nb            4.9567120705        1.7799700043        1.2421340007
Nb            2.4965003946        3.5358908533        1.0728219189
Nb            7.4168311047        3.5359113884        1.0731403553
Nb            0.0365983325        5.2913809771        1.2410165542
Nb            4.9567225156        5.2914026004        1.2422941121
Nb            2.4965125448        7.0474022703        1.0729551761
Nb            7.4168408648        7.0474105343        1.0732649608
C             1.8151264558        1.7803375260        2.3091870852
C             3.1773664444        1.7803089565        2.3093646179
C             6.7359074616        1.7803694536        2.3096693286
C             8.0981631616        1.7803009026        2.3093490007
C             0.7177331397        3.5356328165        0.0046059275
C             4.2756555374        3.5356219382        0.0057209130
C             5.6378560930        3.5356656920        0.0057747647
C             1.8151211080        5.2917301990        2.3093012331
C             3.1773571748        5.2916678425        2.3094720555
C             6.7359284446        5.2917445217        2.3097610261
C             8.0981801600        5.2917055336        2.3094551505
C             9.1955033506        3.5355964079        0.0047058114
C             0.7177635609        7.0470051667        0.0046977315
C             4.2756513672        7.0469881881        0.0058055031
C             5.6378811415        7.0470329548        0.0058487333
C             9.1954978663        7.0469727457        0.0047885775

     Writing output data file /home/fernando/serse/temp/NB.save/
     NEW-OLD atomic charge density approx. for the potential

[...]

     Threshold (ethr) on eigenvalues was too large:
     Diagonalizing with lowered threshold

     Davidson diagonalization with overlap
     ethr =  4.74E-08,  avg # of iterations =  2.0

[...]

     Total force =     0.004765     Total SCF correction =     0.000087
     Energy error            =      1.1E-05 Ry
     Gradient error          =      1.1E-03 Ry/Bohr

[...]

     energy             old  =   -1095.2962392312 Ry
     energy             new  =   -1095.2962503195 Ry

     CASE: energy            _new < energy            _old

[...]

     iteration #  3     ecut=   100.00 Ry     beta= 0.70
     Davidson diagonalization with overlap
     c_bands:  1 eigenvalues not converged
     ethr =  6.95E-08,  avg # of iterations =  7.2

[...]

     number of scf cycles    =   5
     number of bfgs steps    =   4

     energy             old  =   -1095.2962612334 Ry
     energy             new  =   -1095.2962623233 Ry

     CASE: energy            _new < energy            _old

     new trust radius        =       0.0002022874 bohr
     new conv_thr            =            1.0E-10 Ry

ATOMIC_POSITIONS (angstrom)
Nb            0.0366287378        1.7800207035        1.2418533606
Nb            4.9566794999        1.7800355761        1.2430116795
Nb            2.4965410486        3.5358874124        1.0720213064
Nb            7.4167869439        3.5358961819        1.0722913373
Nb            0.0366327270        5.2914336985        1.2419247144
Nb            4.9566809020        5.2914477065        1.2430929975
Nb            2.4965462591        7.0472935419        1.0720848286
Nb            7.4167921070        7.0473064581        1.0723447683
C             1.8150225691        1.7802631517        2.3083881776
C             3.1777806799        1.7802054173        2.3087643204
C             6.7355267124        1.7802736111        2.3089955963
C             8.0982931079        1.7802141015        2.3085663833
C             0.7180031058        3.5357204644        0.0054149983
C             4.2753668083        3.5356943905        0.0063149191
C             5.6380990122        3.5357456769        0.0064265098
C             1.8150235485        5.2916539096        2.3084700780
C             3.1777800225        5.2915940184        2.3088484872
C             6.7355367669        5.2916714474        2.3090774691
C             8.0982998104        5.2916107500        2.3086461262
C             9.1952425598        3.5356749750        0.0055093471
C             0.7180153454        7.0471063902        0.0054914427
C             4.2753690679        7.0470717873        0.0063865030
C             5.6381074493        7.0471235185        0.0064946037
C             9.1952496446        7.0470593795        0.0055811813

     Writing output data file /home/fernando/serse/temp/NB.save/
     NEW-OLD atomic charge density approx. for the potential

     Self-consistent Calculation

[...]

     Threshold (ethr) on eigenvalues was too large:
     Diagonalizing with lowered threshold

     Davidson diagonalization with overlap
     ethr =  8.54E-10,  avg # of iterations =  2.9

[...]

     total energy              =   -1095.29626247 Ry
     estimated scf accuracy    <          2.0E-10 Ry

     iteration # 11     ecut=   100.00 Ry     beta= 0.70
     Davidson diagonalization with overlap
     ethr =  1.21E-13,  avg # of iterations =  5.0

     End of self-consistent calculation

[...]

          k = 0.4000 0.5605 0.0000 (234382 PWs)   bands (ev):

[...]

          k =-0.4000 0.5605 0.0000 (234382 PWs)   bands (ev):

   -59.7729 -59.7628 -59.7597 -59.7523 -59.7130 -59.7087 -59.7056 -59.6984
   -35.1072 -35.0799 -35.0456 -35.0455 -34.9604 -34.8886 -34.8403 -34.8073
   -34.7797 -34.7754 -34.7674 -34.7584 -34.7469 -34.7283 -34.7067 -34.6870
   -34.6828 -34.6758 -34.6667 -34.6281 -34.3938 -34.3925 -34.3875 -34.3521
   -17.8009 -17.7246 -17.6608 -17.6007 -17.5491 -17.5442 -17.4867 -17.4757
   -10.7603 -10.7541 -10.6460 -10.5819 -10.2523 -10.0509  -9.9004  -9.7009
    -8.6240  -8.4677  -8.2368  -8.1242  -7.9028  -7.7648  -7.7524  -7.7047
    -7.5710  -7.5333  -7.4682  -7.3306  -7.2490  -7.1936  -7.1388  -7.1319
    -6.9975  -6.8995  -6.7177  -6.7066  -6.6871  -6.6195  -6.5125  -6.4569
    -5.9458  -5.8377  -5.5322  -5.4612  -3.9729  -3.9191  -3.8246  -3.6895
    -3.2945  -3.2719  -3.1787  -2.9459  -2.9118  -2.8005  -2.4310  -2.2575
    -1.7667  -1.3600  -1.3430  -0.9477  -0.9382  -0.9318  -0.7132  -0.6838
    -0.1931   0.0250   0.1342   0.1373   0.4264

     the Fermi energy is    -2.8945 ev

!    total energy              =   -1095.29626247 Ry
     estimated scf accuracy    <          4.7E-11 Ry
     smearing contrib. (-TS)   =      -0.00681337 Ry
     internal energy E=F+TS    =   -1095.28944910 Ry

     The total energy is F=E-TS. E is the sum of the following terms:
     one-electron contribution =  -11117.50442050 Ry
     hartree contribution      =    5536.34602092 Ry
     xc contribution           =    -164.77230672 Ry
     ewald contribution        =    4650.64125719 Ry

     convergence has been achieved in  11 iterations

     Forces acting on atoms (cartesian axes, Ry/au):

     atom    1 type  1   force =     0.00000086    0.00000467   -0.00004674
     atom    2 type  1   force =     0.00000872    0.00000253   -0.00008409
     atom    3 type  1   force =    -0.00000944   -0.00000408    0.00006669
     atom    4 type  1   force =     0.00000330   -0.00000272    0.00005731
     atom    5 type  1   force =    -0.00000075    0.00001333   -0.00004400
     atom    6 type  1   force =     0.00001001    0.00001236   -0.00008039
     atom    7 type  1   force =    -0.00001037   -0.00001104    0.00007095
     atom    8 type  1   force =     0.00000190   -0.00001448    0.00006289
     atom    9 type  2   force =     0.00002956   -0.00001813   -0.00001944
     atom   10 type  2   force =     0.00001446   -0.00001811   -0.00001673
     atom   11 type  2   force =    -0.00001159   -0.00001897   -0.00002816
     atom   12 type  2   force =    -0.00002304   -0.00001898   -0.00002900
     atom   13 type  2   force =    -0.00001287    0.00001360    0.00004986
     atom   14 type  2   force =     0.00001092    0.00001177    0.00000550
     atom   15 type  2   force =    -0.00002145    0.00001117    0.00000485
     atom   16 type  2   force =     0.00003174   -0.00001212   -0.00002304
     atom   17 type  2   force =     0.00001168   -0.00001171   -0.00001944
     atom   18 type  2   force =    -0.00001201   -0.00001327   -0.00003122
     atom   19 type  2   force =    -0.00002510   -0.00001345   -0.00003253
     atom   20 type  2   force =     0.00001598    0.00001274    0.00004648
     atom   21 type  2   force =    -0.00001804    0.00001935    0.00004496
     atom   22 type  2   force =     0.00001561    0.00001795    0.00000217
     atom   23 type  2   force =    -0.00002907    0.00001816    0.00000133
     atom   24 type  2   force =     0.00001900    0.00001942    0.00004179

     Total force =     0.000244     Total SCF correction =     0.000010
     Energy error            =      1.5E-07 Ry
     Gradient error          =      8.4E-05 Ry/Bohr

     bfgs converged in   6 scf cycles and   5 bfgs steps
     (criteria: energy <  1.0E-05 Ry, force <  1.0E-04 Ry/Bohr)

     End of BFGS Geometry Optimization

     Final energy             =   -1095.2962624726 Ry

     File /home/fernando/serse/temp/NB.bfgs deleted, as requested
Begin final coordinates

ATOMIC_POSITIONS (angstrom)
Nb            0.0366287378        1.7800207035        1.2418533606
Nb            4.9566794999        1.7800355761        1.2430116795
Nb            2.4965410486        3.5358874124        1.0720213064
Nb            7.4167869439        3.5358961819        1.0722913373
Nb            0.0366327270        5.2914336985        1.2419247144
Nb            4.9566809020        5.2914477065        1.2430929975
Nb            2.4965462591        7.0472935419        1.0720848286
Nb            7.4167921070        7.0473064581        1.0723447683
C             1.8150225691        1.7802631517        2.3083881776
C             3.1777806799        1.7802054173        2.3087643204
C             6.7355267124        1.7802736111        2.3089955963
C             8.0982931079        1.7802141015        2.3085663833
C             0.7180031058        3.5357204644        0.0054149983
C             4.2753668083        3.5356943905        0.0063149191
C             5.6380990122        3.5357456769        0.0064265098
C             1.8150235485        5.2916539096        2.3084700780
C             3.1777800225        5.2915940184        2.3088484872
C             6.7355367669        5.2916714474        2.3090774691
C             8.0982998104        5.2916107500        2.3086461262
C             9.1952425598        3.5356749750        0.0055093471
C             0.7180153454        7.0471063902        0.0054914427
C             4.2753690679        7.0470717873        0.0063865030
C             5.6381074493        7.0471235185        0.0064946037
C             9.1952496446        7.0470593795        0.0055811813
End final coordinates

     Writing output data file /home/fernando/serse/temp/NB.save/

     General routines

     Parallel routines

   This run was terminated on:  19: 6: 7  29Jan2025

   JOB DONE.