     Program PWSCF v.6.8 starts on  4Feb2025 at 11:53:59

     R & G space division:  proc/nbgrp/npool/nimage =      24

     Waiting for input...
     Reading input from standard input

     Current dimensions of program PWSCF are:
     Max number of different atomic species (ntypx) = 10
     Max number of k-points (npk) =  40000
     Max angular momentum in pseudopotentials (lmaxx) =  4
     Message from routine set_cutoff:
     ecutrho < 4*ecutwfc, are you sure?

     Subspace diagonalization in iterative solution of the eigenvalue problem:
     a serial algorithm will be used

     Using Slab Decomposition

     Title:
     NB relax

     bravais-lattice index     =            8
     lattice parameter (alat)  =      18.5949  a.u.
     unit-cell volume          =   13877.5695 (a.u.)^3
     number of atoms/cell      =           24
     number of atomic types    =            2
     number of electrons       =       168.00
     number of Kohn-Sham states=          101
     kinetic-energy cutoff     =     120.0000  Ry
     charge density cutoff     =     400.0000  Ry
     scf convergence threshold =      1.0E-08
     mixing beta               =       0.7000
     number of iterations used =            8  plain     mixing
     energy convergence thresh.=      1.0E-05
     force convergence thresh. =      1.0E-04
     Exchange-correlation= SLA-PW-PBX-PBC
                           (   1   4   3   4   0   0   0)
     nstep                     =          100

     celldm(1)=  18.594910  celldm(2)=   0.713710  celldm(3)=   3.024194
     celldm(4)=   0.000000  celldm(5)=   0.000000  celldm(6)=   0.000000

     crystal axes: (cart. coord. in units of alat)
               a(1) = (   1.000000   0.000000   0.000000 )
               a(2) = (   0.000000   0.713710   0.000000 )
               a(3) = (   0.000000   0.000000   3.024194 )

     reciprocal axes: (cart. coord. in units 2 pi/alat)
               b(1) = (  1.000000  0.000000  0.000000 )
               b(2) = (  0.000000  1.401130  0.000000 )
               b(3) = (  0.000000  0.000000  0.330667 )

     PseudoPot. # 1 for Nb read from file:
     /home/fernando/serse/pseudos/Nb.pbe-sp-hgh.UPF
     MD5 check sum: 9806bd744c6e87f68d8a90a6c9e3b9fe
     Pseudo is Norm-conserving, Zval = 13.0
     Generated in analytical, separable form
     Using radial grid of 1227 points,  6 beta functions with:
                l(1) =   0
                l(2) =   0
                l(3) =   1
                l(4) =   1
                l(5) =   2
                l(6) =   2

     PseudoPot. # 2 for C  read from file:
     /home/fernando/serse/pseudos/C.pbe-hgh.UPF
     MD5 check sum: ca26ff84b356733038fc2f5c468d1892
     Pseudo is Norm-conserving, Zval =  4.0
     Generated in analytical, separable form
     Using radial grid of 1073 points,  1 beta functions with:
                l(1) =   0

     atomic species   valence    mass     pseudopotential
        Nb            13.00    92.90638     Nb( 1.00)
        C              4.00    12.01100     C ( 1.00)

     No symmetry found

   Cartesian axes

     site n.     atom                  positions (alat units)
         1           Nb  tau(   1) = (   0.0037189   0.1808829   0.1260840  )
         2           Nb  tau(   2) = (   0.5037326   0.1808850   0.1262172  )
         3           Nb  tau(   3) = (   0.2537058   0.3593399   0.1090438  )
         4           Nb  tau(   4) = (   0.7537471   0.3593418   0.1090777  )
         5           Nb  tau(   5) = (   0.0037195   0.5377452   0.1261030  )
         6           Nb  tau(   6) = (   0.5037329   0.5377468   0.1262373  )
         7           Nb  tau(   7) = (   0.2537062   0.7162010   0.1090621  )
         8           Nb  tau(   8) = (   0.7537484   0.7162025   0.1090945  )
         9           C   tau(   9) = (   0.1843732   0.1809293   0.2346987  )
        10           C   tau(  10) = (   0.3229861   0.1809274   0.2347104  )
        11           C   tau(  11) = (   0.6844586   0.1809332   0.2347426  )
        12           C   tau(  12) = (   0.8230736   0.1809260   0.2347138  )
        13           C   tau(  13) = (   0.0730254   0.3593101   0.0004423  )
        14           C   tau(  14) = (   0.4344313   0.3593094   0.0005595  )
        15           C   tau(  15) = (   0.5730395   0.3593136   0.0005628  )
        16           C   tau(  16) = (   0.1843750   0.5377792   0.2347108  )
        17           C   tau(  17) = (   0.3229824   0.5377728   0.2347216  )
        18           C   tau(  18) = (   0.6844636   0.5377804   0.2347518  )
        19           C   tau(  19) = (   0.8230732   0.5377771   0.2347250  )
        20           C   tau(  20) = (   0.9344168   0.3593067   0.0004523  )
        21           C   tau(  21) = (   0.0730271   0.7161572   0.0004523  )
        22           C   tau(  22) = (   0.4344325   0.7161560   0.0005685  )
        23           C   tau(  23) = (   0.5730407   0.7161603   0.0005705  )
        24           C   tau(  24) = (   0.9344178   0.7161544   0.0004612  )

     number of k points=    13  Gaussian smearing, width (Ry)=  0.0100
                       cart. coord. in units 2pi/alat
        k(    1) = (   0.0000000   0.0000000   0.0000000), wk =   0.0800000
        k(    2) = (   0.0000000   0.2802260   0.0000000), wk =   0.1600000
        k(    3) = (   0.0000000   0.5604520   0.0000000), wk =   0.1600000
        k(    4) = (   0.2000000   0.0000000   0.0000000), wk =   0.1600000
        k(    5) = (   0.2000000   0.2802260   0.0000000), wk =   0.1600000
        k(    6) = (   0.2000000   0.5604520   0.0000000), wk =   0.1600000
        k(    7) = (   0.4000000   0.0000000   0.0000000), wk =   0.1600000
        k(    8) = (   0.4000000   0.2802260   0.0000000), wk =   0.1600000
        k(    9) = (   0.4000000   0.5604520   0.0000000), wk =   0.1600000
        k(   10) = (  -0.2000000   0.2802260   0.0000000), wk =   0.1600000
        k(   11) = (  -0.2000000   0.5604520   0.0000000), wk =   0.1600000
        k(   12) = (  -0.4000000   0.2802260   0.0000000), wk =   0.1600000
        k(   13) = (  -0.4000000   0.5604520   0.0000000), wk =   0.1600000

     Initial potential from superposition of free atoms

     starting charge   63.99933, renormalised to  168.00000

     negative rho (up, down):  4.251E-05 0.000E+00
     Starting wfcs are   64 randomized atomic wfcs +   37 random wfcs

     Self-consistent Calculation

     iteration #  1     ecut=   120.00 Ry     beta= 0.70
     Davidson diagonalization with overlap
     c_bands:  1 eigenvalues not converged
     c_bands:  1 eigenvalues not converged
     ethr =  1.00E-02,  avg # of iterations = 17.0

     total energy              =    -679.62530093 Ry
     estimated scf accuracy    <    1709.52462723 Ry

     iteration #  2     ecut=   120.00 Ry     beta= 0.70
     Davidson diagonalization with overlap
     ethr =  1.00E-02,  avg # of iterations = 15.2

[...]

     negative rho (up, down):  3.998E-07 0.000E+00

[...]

     End of self-consistent calculation

          k = 0.0000 0.0000 0.0000 (307975 PWs)   bands (ev):

   -59.8005 -59.7439 -59.7439 -59.7346 -59.7341 -59.7338 -59.7334 -59.6867
   -35.1815 -35.1815 -35.0519 -34.9670 -34.9670 -34.9221 -34.8257 -34.7657
   -34.7657 -34.7652 -34.7651 -34.7118 -34.7114 -34.7109 -34.7106 -34.6553
   -34.6504 -34.6500 -34.6449 -34.6449 -34.6032 -34.4205 -34.4205 -34.2581
   -18.0437 -17.6884 -17.6882 -17.6328 -17.4919 -17.4917 -17.3956 -17.3954
   -10.9088 -10.9087 -10.5493 -10.4703 -10.4702  -9.8765  -9.8754  -9.2514
    -9.1367  -8.3909  -8.2892  -8.2887  -7.9436  -7.7856  -7.7854  -7.5832
    -7.5830  -7.4587  -7.4586  -7.3104  -7.3097  -7.2543  -7.2112  -7.2112
    -7.0825  -7.0825  -6.8562  -6.3899  -6.2720  -6.1666  -6.1665  -5.9861
    -5.9859  -5.5815  -5.5805  -4.5351  -4.5350  -4.3710  -4.3709  -3.9739
    -3.9738  -3.7624  -3.7622  -2.6025  -2.6022  -1.8089  -1.5101  -1.4586
    -1.3129  -1.3127  -1.2967  -1.2967  -1.1269  -1.1268  -0.9130  -0.9122
    -0.3715  -0.2174  -0.2023  -0.1148  -0.0728

[...]

          k =-0.2000 0.2802 0.0000 (308048 PWs)   bands (ev):

[...]

     the Fermi energy is    -2.8979 ev

!    total energy              =   -1095.33428928 Ry
     estimated scf accuracy    <          2.4E-09 Ry
     smearing contrib. (-TS)   =      -0.00682089 Ry
     internal energy E=F+TS    =   -1095.32746839 Ry

     The total energy is F=E-TS. E is the sum of the following terms:
     one-electron contribution =  -11116.51877534 Ry
     hartree contribution      =    5535.84375746 Ry
     xc contribution           =    -164.76100642 Ry
     ewald contribution        =    4650.10855590 Ry

     convergence has been achieved in  33 iterations

     Forces acting on atoms (cartesian axes, Ry/au):

     atom    1 type  1   force =     0.00005243    0.00007296    0.00046236
     atom    2 type  1   force =    -0.00008340    0.00009273    0.00037548
     atom    3 type  1   force =     0.00003117    0.00003636   -0.00029124
     atom    4 type  1   force =    -0.00004557    0.00001207   -0.00033279
     atom    5 type  1   force =     0.00006688   -0.00000594    0.00039514
     atom    6 type  1   force =    -0.00010218   -0.00002803    0.00032679
     atom    7 type  1   force =     0.00001290   -0.00010555   -0.00035784
     atom    8 type  1   force =    -0.00003398   -0.00008068   -0.00039468
     atom    9 type  2   force =     0.00262493   -0.00001182   -0.00062026
     atom   10 type  2   force =    -0.00247971   -0.00003244   -0.00050445
     atom   11 type  2   force =     0.00251011   -0.00002448   -0.00052602
     atom   12 type  2   force =    -0.00260161   -0.00002175   -0.00059613
     atom   13 type  2   force =    -0.00251873    0.00003886    0.00057062
     atom   14 type  2   force =     0.00254791    0.00003011    0.00049934
     atom   15 type  2   force =    -0.00255401    0.00003663    0.00054051
     atom   16 type  2   force =     0.00258262   -0.00002870   -0.00063242
     atom   17 type  2   force =    -0.00243129   -0.00003195   -0.00051158
     atom   18 type  2   force =     0.00245724   -0.00002610   -0.00052701
     atom   19 type  2   force =    -0.00255871   -0.00004066   -0.00060706
     atom   20 type  2   force =     0.00252834    0.00003189    0.00057371
     atom   21 type  2   force =    -0.00248695    0.00002876    0.00056142
     atom   22 type  2   force =     0.00251037    0.00001629    0.00049393
     atom   23 type  2   force =    -0.00252402    0.00002308    0.00053689
     atom   24 type  2   force =     0.00249525    0.00001835    0.00056533

     Total force =     0.010403     Total SCF correction =     0.000072

     BFGS Geometry Optimization
     Energy error            =      0.0E+00 Ry
     Gradient error          =      2.6E-03 Ry/Bohr

     number of scf cycles    =   1
     number of bfgs steps    =   0

     energy             new  =   -1095.3342892823 Ry

     new trust radius        =       0.0026972420 bohr
     new conv_thr            =       0.0000000100 Ry

ATOMIC_POSITIONS (angstrom)
Nb            0.0366219574        1.7799271621        1.2409114201
Nb            4.9566862898        1.7799578671        1.2421760079
Nb            2.4964820232        3.5359249268        1.0728367168
Nb            7.4168489648        3.5359308396        1.0731490265
Nb            0.0366352956        5.2914109243        1.2410627518
Nb            4.9566788570        5.2914154545        1.2423484308
Nb            2.4964765223        7.0473637335        1.0729823321
Nb            7.4168681748        7.0473914250        1.0732813533
C             1.8156219453        1.7803383965        2.3091071259
C             3.1768722724        1.7803087074        2.3092838558
C             6.7364030638        1.7803699604        2.3095894059
C             8.0976693887        1.7803003532        2.3092691919
C             0.7172374339        3.5356329821        0.0046543990
C             4.2761530917        3.5356216246        0.0057695562
C             5.6373591132        3.5356661867        0.0058235659
C             1.8156168898        5.2917330843        2.3092202792
C             3.1768610523        5.2916690381        2.3093903000
C             6.7364240174        5.2917468481        2.3096798576
C             8.0976887224        5.2917066335        2.3093738486
C             9.1960016566        3.5355956027        0.0047544482
C             0.7172709672        7.0470041679        0.0047473391
C             4.2761457852        7.0469856319        0.0058549736
C             5.6373866515        7.0470317445        0.0058976079
C             9.1959943000        7.0469709733        0.0048373415

     Writing output data file /home/fernando/serse/temp/NB.save/
     NEW-OLD atomic charge density approx. for the potential

[...]

     Threshold (ethr) on eigenvalues was too large:
     Diagonalizing with lowered threshold

     Davidson diagonalization with overlap
     ethr =  6.91E-08,  avg # of iterations =  3.6

[...]

     Total force =     0.007300     Total SCF correction =     0.000125
     Energy error            =      2.4E-05 Ry
     Gradient error          =      1.7E-03 Ry/Bohr

[...]

     energy             old  =   -1095.3342892823 Ry
     energy             new  =   -1095.3343135705 Ry

     CASE: energy            _new < energy            _old

[...]

     number of scf cycles    =   5
     number of bfgs steps    =   4

     energy             old  =   -1095.3343357064 Ry
     energy             new  =   -1095.3343381298 Ry

     CASE: energy            _new < energy            _old

     new trust radius        =       0.0002363733 bohr
     new conv_thr            =            1.0E-10 Ry

ATOMIC_POSITIONS (angstrom)
Nb            0.0366214181        1.7799975053        1.2421827155
Nb            4.9566865322        1.7800243196        1.2433327129
Nb            2.4965318545        3.5358838514        1.0717173726
Nb            7.4167929054        3.5358821686        1.0719681739
Nb            0.0366327509        5.2914577402        1.2422489601
Nb            4.9566801023        5.2914591533        1.2434148454
Nb            2.4965265626        7.0472959303        1.0717790235
Nb            7.4168062183        7.0473196036        1.0720161884
C             1.8153473065        1.7802592887        2.3081502889
C             3.1774594975        1.7802044014        2.3085118682
C             6.7358454003        1.7802770745        2.3087411236
C             8.0979753607        1.7802058360        2.3083211223
C             0.7176701138        3.5357206994        0.0056773705
C             4.2756961544        3.5356931728        0.0065666688
C             5.6377679046        3.5357418198        0.0066744301
C             1.8153499152        5.2916663660        2.3082383564
C             3.1774506458        5.2915939221        2.3086054163
C             6.7358703266        5.2916768466        2.3088064390
C             8.0979691921        5.2916196871        2.3083819487
C             9.1955829096        3.5356648513        0.0057677536
C             0.7176971800        7.0471059624        0.0057212888
C             4.2756941715        7.0470649019        0.0066342400
C             5.6377759344        7.0471271824        0.0067366096
C             9.1955740789        7.0470619835        0.0058062185

     Writing output data file /home/fernando/serse/temp/NB.save/
     NEW-OLD atomic charge density approx. for the potential

[...]

     Self-consistent Calculation

[...]

     Threshold (ethr) on eigenvalues was too large:
     Diagonalizing with lowered threshold

     Davidson diagonalization with overlap
     ethr =  1.07E-09,  avg # of iterations =  3.2

[...]

     iteration #  7     ecut=   120.00 Ry     beta= 0.70
     Davidson diagonalization with overlap
     c_bands:  2 eigenvalues not converged
     ethr =  9.95E-12,  avg # of iterations =  7.2

[...]

     total energy              =   -1095.33433835 Ry
     estimated scf accuracy    <          4.9E-10 Ry

     iteration # 11     ecut=   120.00 Ry     beta= 0.70
     Davidson diagonalization with overlap
     ethr =  2.93E-13,  avg # of iterations =  2.0

     negative rho (up, down):  1.798E-05 0.000E+00

     End of self-consistent calculation

[...]

          k = 0.4000 0.5605 0.0000 (308051 PWs)   bands (ev):

[...]

          k =-0.4000 0.5605 0.0000 (308051 PWs)   bands (ev):

   -59.7750 -59.7649 -59.7619 -59.7545 -59.7151 -59.7108 -59.7077 -59.7005
   -35.1073 -35.0800 -35.0457 -35.0456 -34.9606 -34.8888 -34.8404 -34.8074
   -34.7797 -34.7756 -34.7675 -34.7585 -34.7470 -34.7284 -34.7067 -34.6872
   -34.6830 -34.6759 -34.6668 -34.6282 -34.3939 -34.3926 -34.3876 -34.3522
   -17.8040 -17.7277 -17.6641 -17.6040 -17.5526 -17.5476 -17.4902 -17.4792
   -10.7592 -10.7529 -10.6445 -10.5804 -10.2513 -10.0497  -9.8991  -9.6995
    -8.6252  -8.4688  -8.2378  -8.1253  -7.9051  -7.7668  -7.7547  -7.7071
    -7.5731  -7.5355  -7.4701  -7.3330  -7.2518  -7.1966  -7.1417  -7.1345
    -6.9989  -6.9008  -6.7182  -6.7083  -6.6878  -6.6210  -6.5132  -6.4578
    -5.9452  -5.8373  -5.5314  -5.4606  -3.9727  -3.9179  -3.8240  -3.6884
    -3.2935  -3.2720  -3.1783  -2.9451  -2.9107  -2.7996  -2.4306  -2.2571
    -1.7678  -1.3614  -1.3441  -0.9485  -0.9393  -0.9318  -0.7143  -0.6835
    -0.1936   0.0262   0.1356   0.1379   0.3933

     the Fermi energy is    -2.8941 ev

!    total energy              =   -1095.33433835 Ry
     estimated scf accuracy    <          3.1E-11 Ry
     smearing contrib. (-TS)   =      -0.00681255 Ry
     internal energy E=F+TS    =   -1095.32752580 Ry

     The total energy is F=E-TS. E is the sum of the following terms:
     one-electron contribution =  -11117.86301883 Ry
     hartree contribution      =    5536.52616792 Ry
     xc contribution           =    -164.78123261 Ry
     ewald contribution        =    4650.79055772 Ry

     convergence has been achieved in  11 iterations

     Forces acting on atoms (cartesian axes, Ry/au):

     atom    1 type  1   force =     0.00001393    0.00001637   -0.00006277
     atom    2 type  1   force =    -0.00000759    0.00000876   -0.00009736
     atom    3 type  1   force =     0.00000558   -0.00001242    0.00008262
     atom    4 type  1   force =    -0.00000739   -0.00000856    0.00007283
     atom    5 type  1   force =     0.00000894   -0.00000001   -0.00006497
     atom    6 type  1   force =    -0.00000536    0.00000638   -0.00009963
     atom    7 type  1   force =     0.00000977   -0.00000204    0.00008052
     atom    8 type  1   force =    -0.00001325   -0.00000725    0.00007290
     atom    9 type  2   force =     0.00004901   -0.00001781   -0.00002999
     atom   10 type  2   force =    -0.00000444   -0.00001870   -0.00002507
     atom   11 type  2   force =     0.00001739   -0.00001961   -0.00003561
     atom   12 type  2   force =    -0.00005283   -0.00001916   -0.00003846
     atom   13 type  2   force =     0.00000352    0.00001390    0.00006188
     atom   14 type  2   force =     0.00000810    0.00001161    0.00002004
     atom   15 type  2   force =    -0.00002087    0.00001205    0.00001672
     atom   16 type  2   force =     0.00003424   -0.00001331   -0.00003609
     atom   17 type  2   force =     0.00001129   -0.00001195   -0.00003110
     atom   18 type  2   force =    -0.00001883   -0.00001352   -0.00003784
     atom   19 type  2   force =    -0.00001904   -0.00001452   -0.00004123
     atom   20 type  2   force =     0.00000067    0.00001383    0.00005538
     atom   21 type  2   force =    -0.00003727    0.00001995    0.00005895
     atom   22 type  2   force =     0.00002016    0.00001892    0.00001456
     atom   23 type  2   force =    -0.00003550    0.00001807    0.00001121
     atom   24 type  2   force =     0.00003978    0.00001902    0.00005250

     Total force =     0.000306     Total SCF correction =     0.000008
     Energy error            =      2.2E-07 Ry
     Gradient error          =      1.0E-04 Ry/Bohr

     bfgs converged in   6 scf cycles and   5 bfgs steps
     (criteria: energy <  1.0E-05 Ry, force <  1.0E-04 Ry/Bohr)

     End of BFGS Geometry Optimization

     Final energy             =   -1095.3343383476 Ry

     File /home/fernando/serse/temp/NB.bfgs deleted, as requested
Begin final coordinates

ATOMIC_POSITIONS (angstrom)
Nb            0.0366214181        1.7799975053        1.2421827155
Nb            4.9566865322        1.7800243196        1.2433327129
Nb            2.4965318545        3.5358838514        1.0717173726
Nb            7.4167929054        3.5358821686        1.0719681739
Nb            0.0366327509        5.2914577402        1.2422489601
Nb            4.9566801023        5.2914591533        1.2434148454
Nb            2.4965265626        7.0472959303        1.0717790235
Nb            7.4168062183        7.0473196036        1.0720161884
C             1.8153473065        1.7802592887        2.3081502889
C             3.1774594975        1.7802044014        2.3085118682
C             6.7358454003        1.7802770745        2.3087411236
C             8.0979753607        1.7802058360        2.3083211223
C             0.7176701138        3.5357206994        0.0056773705
C             4.2756961544        3.5356931728        0.0065666688
C             5.6377679046        3.5357418198        0.0066744301
C             1.8153499152        5.2916663660        2.3082383564
C             3.1774506458        5.2915939221        2.3086054163
C             6.7358703266        5.2916768466        2.3088064390
C             8.0979691921        5.2916196871        2.3083819487
C             9.1955829096        3.5356648513        0.0057677536
C             0.7176971800        7.0471059624        0.0057212888
C             4.2756941715        7.0470649019        0.0066342400
C             5.6377759344        7.0471271824        0.0067366096
C             9.1955740789        7.0470619835        0.0058062185
End final coordinates

     Writing output data file /home/fernando/serse/temp/NB.save/

     General routines

     Parallel routines

   This run was terminated on:  13:41:26   4Feb2025

   JOB DONE.