     Program PWSCF v.6.8 starts on 30Jan2025 at 16:43:48

     R & G space division:  proc/nbgrp/npool/nimage =      24

     Waiting for input...
     Reading input from standard input

     Current dimensions of program PWSCF are:
     Max number of different atomic species (ntypx) = 10
     Max number of k-points (npk) =  40000
     Max angular momentum in pseudopotentials (lmaxx) =  4

     Subspace diagonalization in iterative solution of the eigenvalue problem:
     a serial algorithm will be used

     Using Slab Decomposition

     Title:
     NB relax

     bravais-lattice index     =            8
     lattice parameter (alat)  =      18.5949  a.u.
     unit-cell volume          =   13877.5695 (a.u.)^3
     number of atoms/cell      =           24
     number of atomic types    =            2
     number of electrons       =       168.00
     number of Kohn-Sham states=          101
     kinetic-energy cutoff     =     110.0000  Ry
     charge density cutoff     =     440.0000  Ry
     scf convergence threshold =      1.0E-08
     mixing beta               =       0.7000
     number of iterations used =            8  plain     mixing
     energy convergence thresh.=      1.0E-05
     force convergence thresh. =      1.0E-04
     Exchange-correlation= SLA-PW-PBX-PBC
                           (   1   4   3   4   0   0   0)
     nstep                     =          100

     celldm(1)=  18.594910  celldm(2)=   0.713710  celldm(3)=   3.024194
     celldm(4)=   0.000000  celldm(5)=   0.000000  celldm(6)=   0.000000

     crystal axes: (cart. coord. in units of alat)
               a(1) = (   1.000000   0.000000   0.000000 )
               a(2) = (   0.000000   0.713710   0.000000 )
               a(3) = (   0.000000   0.000000   3.024194 )

     reciprocal axes: (cart. coord. in units 2 pi/alat)
               b(1) = (  1.000000  0.000000  0.000000 )
               b(2) = (  0.000000  1.401130  0.000000 )
               b(3) = (  0.000000  0.000000  0.330667 )

     PseudoPot. # 1 for Nb read from file:
     /home/fernando/serse/pseudos/Nb.pbe-sp-hgh.UPF
     MD5 check sum: 9806bd744c6e87f68d8a90a6c9e3b9fe
     Pseudo is Norm-conserving, Zval = 13.0
     Generated in analytical, separable form
     Using radial grid of 1227 points,  6 beta functions with:
                l(1) =   0
                l(2) =   0
                l(3) =   1
                l(4) =   1
                l(5) =   2
                l(6) =   2

     PseudoPot. # 2 for C  read from file:
     /home/fernando/serse/pseudos/C.pbe-hgh.UPF
     MD5 check sum: ca26ff84b356733038fc2f5c468d1892
     Pseudo is Norm-conserving, Zval =  4.0
     Generated in analytical, separable form
     Using radial grid of 1073 points,  1 beta functions with:
                l(1) =   0

     atomic species   valence    mass     pseudopotential
        Nb            13.00    92.90638     Nb( 1.00)
        C              4.00    12.01100     C ( 1.00)

     No symmetry found

   Cartesian axes

     site n.     atom                  positions (alat units)
         1           Nb  tau(   1) = (   0.0037189   0.1808829   0.1260840  )
         2           Nb  tau(   2) = (   0.5037326   0.1808850   0.1262172  )
         3           Nb  tau(   3) = (   0.2537058   0.3593399   0.1090438  )
         4           Nb  tau(   4) = (   0.7537471   0.3593418   0.1090777  )
         5           Nb  tau(   5) = (   0.0037195   0.5377452   0.1261030  )
         6           Nb  tau(   6) = (   0.5037329   0.5377468   0.1262373  )
         7           Nb  tau(   7) = (   0.2537062   0.7162010   0.1090621  )
         8           Nb  tau(   8) = (   0.7537484   0.7162025   0.1090945  )
         9           C   tau(   9) = (   0.1843732   0.1809293   0.2346987  )
        10           C   tau(  10) = (   0.3229861   0.1809274   0.2347104  )
        11           C   tau(  11) = (   0.6844586   0.1809332   0.2347426  )
        12           C   tau(  12) = (   0.8230736   0.1809260   0.2347138  )
        13           C   tau(  13) = (   0.0730254   0.3593101   0.0004423  )
        14           C   tau(  14) = (   0.4344313   0.3593094   0.0005595  )
        15           C   tau(  15) = (   0.5730395   0.3593136   0.0005628  )
        16           C   tau(  16) = (   0.1843750   0.5377792   0.2347108  )
        17           C   tau(  17) = (   0.3229824   0.5377728   0.2347216  )
        18           C   tau(  18) = (   0.6844636   0.5377804   0.2347518  )
        19           C   tau(  19) = (   0.8230732   0.5377771   0.2347250  )
        20           C   tau(  20) = (   0.9344168   0.3593067   0.0004523  )
        21           C   tau(  21) = (   0.0730271   0.7161572   0.0004523  )
        22           C   tau(  22) = (   0.4344325   0.7161560   0.0005685  )
        23           C   tau(  23) = (   0.5730407   0.7161603   0.0005705  )
        24           C   tau(  24) = (   0.9344178   0.7161544   0.0004612  )

     number of k points=    13  Gaussian smearing, width (Ry)=  0.0100
                       cart. coord. in units 2pi/alat
        k(    1) = (   0.0000000   0.0000000   0.0000000), wk =   0.0800000
        k(    2) = (   0.0000000   0.2802260   0.0000000), wk =   0.1600000
        k(    3) = (   0.0000000   0.5604520   0.0000000), wk =   0.1600000
        k(    4) = (   0.2000000   0.0000000   0.0000000), wk =   0.1600000
        k(    5) = (   0.2000000   0.2802260   0.0000000), wk =   0.1600000
        k(    6) = (   0.2000000   0.5604520   0.0000000), wk =   0.1600000
        k(    7) = (   0.4000000   0.0000000   0.0000000), wk =   0.1600000
        k(    8) = (   0.4000000   0.2802260   0.0000000), wk =   0.1600000
        k(    9) = (   0.4000000   0.5604520   0.0000000), wk =   0.1600000
        k(   10) = (  -0.2000000   0.2802260   0.0000000), wk =   0.1600000
        k(   11) = (  -0.2000000   0.5604520   0.0000000), wk =   0.1600000
        k(   12) = (  -0.4000000   0.2802260   0.0000000), wk =   0.1600000
        k(   13) = (  -0.4000000   0.5604520   0.0000000), wk =   0.1600000

     Initial potential from superposition of free atoms

     starting charge   63.99933, renormalised to  168.00000

     negative rho (up, down):  4.977E-04 0.000E+00
     Starting wfcs are   64 randomized atomic wfcs +   37 random wfcs

     Self-consistent Calculation

     iteration #  1     ecut=   110.00 Ry     beta= 0.70
     Davidson diagonalization with overlap
     c_bands:  1 eigenvalues not converged
     c_bands:  1 eigenvalues not converged
     ethr =  1.00E-02,  avg # of iterations = 17.1

     negative rho (up, down):  1.918E-05 0.000E+00

     total energy              =    -679.67754254 Ry
     estimated scf accuracy    <    1709.44889818 Ry

     iteration #  2     ecut=   110.00 Ry     beta= 0.70
     Davidson diagonalization with overlap
     ethr =  1.00E-02,  avg # of iterations = 15.1

[...]

     iteration # 34     ecut=   110.00 Ry     beta= 0.70
     Davidson diagonalization with overlap
     c_bands:  1 eigenvalues not converged
     ethr =  1.28E-11,  avg # of iterations =  6.9

[...]

     End of self-consistent calculation

          k = 0.0000 0.0000 0.0000 (270233 PWs)   bands (ev):

   -59.7996 -59.7430 -59.7430 -59.7338 -59.7332 -59.7330 -59.7325 -59.6857
   -35.1812 -35.1812 -35.0516 -34.9667 -34.9667 -34.9218 -34.8254 -34.7654
   -34.7653 -34.7648 -34.7648 -34.7115 -34.7111 -34.7106 -34.7103 -34.6550
   -34.6501 -34.6497 -34.6446 -34.6446 -34.6029 -34.4202 -34.4202 -34.2578
   -18.0438 -17.6887 -17.6885 -17.6331 -17.4923 -17.4921 -17.3960 -17.3958
   -10.9088 -10.9088 -10.5493 -10.4703 -10.4702  -9.8765  -9.8754  -9.2513
    -9.1368  -8.3908  -8.2891  -8.2886  -7.9433  -7.7855  -7.7853  -7.5829
    -7.5828  -7.4587  -7.4586  -7.3103  -7.3095  -7.2542  -7.2109  -7.2109
    -7.0821  -7.0821  -6.8559  -6.3897  -6.2718  -6.1663  -6.1662  -5.9859
    -5.9857  -5.5813  -5.5803  -4.5349  -4.5349  -4.3707  -4.3707  -3.9736
    -3.9735  -3.7622  -3.7620  -2.6022  -2.6020  -1.8087  -1.5099  -1.4583
    -1.3126  -1.3124  -1.2963  -1.2963  -1.1267  -1.1266  -0.9125  -0.9117
    -0.3719  -0.2162  -0.2019  -0.2019  -0.1517

[...]

          k =-0.2000 0.2802 0.0000 (270322 PWs)   bands (ev):

[...]

     the Fermi energy is    -2.8977 ev

!    total energy              =   -1095.32084461 Ry
     estimated scf accuracy    <          1.8E-09 Ry
     smearing contrib. (-TS)   =      -0.00682093 Ry
     internal energy E=F+TS    =   -1095.31402368 Ry

     The total energy is F=E-TS. E is the sum of the following terms:
     one-electron contribution =  -11116.49568080 Ry
     hartree contribution      =    5535.83310109 Ry
     xc contribution           =    -164.75999988 Ry
     ewald contribution        =    4650.10855590 Ry

     convergence has been achieved in  35 iterations

     Forces acting on atoms (cartesian axes, Ry/au):

     atom    1 type  1   force =    -0.00001134    0.00007874    0.00039799
     atom    2 type  1   force =     0.00001265    0.00005519    0.00035863
     atom    3 type  1   force =     0.00000492   -0.00000970   -0.00028040
     atom    4 type  1   force =    -0.00000110    0.00003400   -0.00030535
     atom    5 type  1   force =    -0.00005415   -0.00001935    0.00032758
     atom    6 type  1   force =     0.00004756    0.00001307    0.00028423
     atom    7 type  1   force =     0.00002445   -0.00005236   -0.00033292
     atom    8 type  1   force =    -0.00003141   -0.00009986   -0.00036161
     atom    9 type  2   force =     0.00265214   -0.00000852   -0.00060577
     atom   10 type  2   force =    -0.00261489   -0.00005520   -0.00044571
     atom   11 type  2   force =     0.00260790   -0.00008237   -0.00047595
     atom   12 type  2   force =    -0.00261019   -0.00000100   -0.00056561
     atom   13 type  2   force =    -0.00262355    0.00001670    0.00053210
     atom   14 type  2   force =     0.00253100    0.00006614    0.00047960
     atom   15 type  2   force =    -0.00256077    0.00005832    0.00051644
     atom   16 type  2   force =     0.00260922   -0.00002386   -0.00061627
     atom   17 type  2   force =    -0.00256378   -0.00005261   -0.00045140
     atom   18 type  2   force =     0.00255731   -0.00008349   -0.00047586
     atom   19 type  2   force =    -0.00257214   -0.00002030   -0.00057496
     atom   20 type  2   force =     0.00262885    0.00004718    0.00054486
     atom   21 type  2   force =    -0.00258924    0.00000765    0.00052363
     atom   22 type  2   force =     0.00249319    0.00005350    0.00047580
     atom   23 type  2   force =    -0.00253078    0.00004468    0.00051407
     atom   24 type  2   force =     0.00259412    0.00003345    0.00053688

     Total force =     0.010591     Total SCF correction =     0.000064

     BFGS Geometry Optimization
     Energy error            =      0.0E+00 Ry
     Gradient error          =      2.7E-03 Ry/Bohr

     number of scf cycles    =   1
     number of bfgs steps    =   0

     energy             new  =   -1095.3208446069 Ry

     new trust radius        =       0.0027204585 bohr
     new conv_thr            =       0.0000000100 Ry

ATOMIC_POSITIONS (angstrom)
Nb            0.0365882110        1.7799302170        1.2408773589
Nb            4.9567371166        1.7799380006        1.2421670926
Nb            2.4964681318        3.5359005513        1.0728424499
Nb            7.4168724997        3.5359424445        1.0731635467
Nb            0.0365712485        5.2914038272        1.2410269999
Nb            4.9567580944        5.2914372022        1.2423259078
Nb            2.4964826352        7.0473918803        1.0729955193
Nb            7.4168695313        7.0473812750        1.0732988565
C             1.8156363467        1.7803401410        2.3091147944
C             3.1768007407        1.7802966641        2.3093149389
C             6.7364548080        1.7803393262        2.3096159009
C             8.0976648479        1.7803113331        2.3092853420
C             0.7171819682        3.5356212548        0.0046340174
C             4.2761441482        3.5356406918        0.0057591109
C             5.6373555364        3.5356776664        0.0058108317
C             1.8156309650        5.2917356504        2.3092288254
C             3.1767909462        5.2916581082        2.3094221470
C             6.7364769717        5.2917164783        2.3097069289
C             8.0976816165        5.2917174065        2.3093908361
C             9.1960548445        3.5356036952        0.0047391820
C             0.7172168370        7.0469929947        0.0047273427
C             4.2761366949        7.0470053198        0.0058453821
C             5.6373830751        7.0470431753        0.0058855349
C             9.1960466208        7.0469789645        0.0048222890

     Writing output data file /home/fernando/serse/temp/NB.save/
     NEW-OLD atomic charge density approx. for the potential

[...]

     Threshold (ethr) on eigenvalues was too large:
     Diagonalizing with lowered threshold

     Davidson diagonalization with overlap
     ethr =  5.64E-08,  avg # of iterations =  3.9

[...]

     Total force =     0.007483     Total SCF correction =     0.000100
     Energy error            =      2.4E-05 Ry
     Gradient error          =      1.7E-03 Ry/Bohr

[...]

     energy             old  =   -1095.3208446069 Ry
     energy             new  =   -1095.3208685723 Ry

     CASE: energy            _new < energy            _old

[...]

     negative rho (up, down):  3.910E-07 0.000E+00

[...]

     number of scf cycles    =   5
     number of bfgs steps    =   4

     energy             old  =   -1095.3208906983 Ry
     energy             new  =   -1095.3208929653 Ry

     CASE: energy            _new < energy            _old

     new trust radius        =       0.0002783449 bohr
     new conv_thr            =            1.0E-10 Ry

ATOMIC_POSITIONS (angstrom)
Nb            0.0366295732        1.7800075364        1.2420656757
Nb            4.9566951076        1.7800523094        1.2433448386
Nb            2.4965314232        3.5358759209        1.0717473353
Nb            7.4168038929        3.5358809923        1.0720222476
Nb            0.0366278896        5.2914290987        1.2421380120
Nb            4.9567016326        5.2914819676        1.2434279974
Nb            2.4965384712        7.0473004011        1.0718181323
Nb            7.4168049785        7.0472948811        1.0720771314
C             1.8152242608        1.7802835793        2.3081885609
C             3.1773092055        1.7801659466        2.3086241444
C             6.7359980934        1.7801549546        2.3088474993
C             8.0981012743        1.7802544402        2.3083996763
C             0.7176514175        3.5356594974        0.0055193349
C             4.2756682556        3.5357770220        0.0065370743
C             5.6377522874        3.5358027547        0.0066393113
C             1.8152408954        5.2916699372        2.3082598622
C             3.1772915951        5.2915554680        2.3086980285
C             6.7360121188        5.2915567188        2.3089381969
C             8.0981014623        5.2916500124        2.3084882125
C             9.1956127135        3.5356915871        0.0056331662
C             0.7176657318        7.0470507533        0.0055947736
C             4.2756563561        7.0471597383        0.0065980098
C             5.6377675784        7.0471765450        0.0066923795
C             9.1956182214        7.0470722056        0.0057015347

     Writing output data file /home/fernando/serse/temp/NB.save/
     NEW-OLD atomic charge density approx. for the potential

     Self-consistent Calculation

[...]

     Threshold (ethr) on eigenvalues was too large:
     Diagonalizing with lowered threshold

     Davidson diagonalization with overlap
     ethr =  2.97E-09,  avg # of iterations =  3.8

[...]

     total energy              =   -1095.32089322 Ry
     estimated scf accuracy    <          1.1E-10 Ry

     iteration # 13     ecut=   110.00 Ry     beta= 0.70
     Davidson diagonalization with overlap
     ethr =  1.00E-13,  avg # of iterations =  1.7

     End of self-consistent calculation

[...]

          k = 0.4000 0.5605 0.0000 (270429 PWs)   bands (ev):

[...]

          k =-0.4000 0.5605 0.0000 (270429 PWs)   bands (ev):

   -59.7743 -59.7641 -59.7611 -59.7537 -59.7143 -59.7100 -59.7069 -59.6997
   -35.1070 -35.0798 -35.0454 -35.0453 -34.9603 -34.8885 -34.8402 -34.8071
   -34.7795 -34.7753 -34.7673 -34.7583 -34.7468 -34.7281 -34.7065 -34.6869
   -34.6827 -34.6756 -34.6665 -34.6280 -34.3937 -34.3924 -34.3874 -34.3520
   -17.8044 -17.7282 -17.6646 -17.6045 -17.5531 -17.5481 -17.4907 -17.4797
   -10.7590 -10.7527 -10.6444 -10.5803 -10.2511 -10.0495  -9.8990  -9.6995
    -8.6250  -8.4686  -8.2376  -8.1251  -7.9050  -7.7667  -7.7546  -7.7070
    -7.5730  -7.5354  -7.4700  -7.3329  -7.2517  -7.1965  -7.1416  -7.1343
    -6.9986  -6.9005  -6.7178  -6.7080  -6.6874  -6.6206  -6.5130  -6.4575
    -5.9447  -5.8369  -5.5310  -5.4602  -3.9723  -3.9176  -3.8238  -3.6881
    -3.2934  -3.2715  -3.1780  -2.9451  -2.9106  -2.7995  -2.4306  -2.2570
    -1.7674  -1.3609  -1.3437  -0.9481  -0.9391  -0.9316  -0.7142  -0.6833
    -0.1933   0.0264   0.1359   0.1382   0.3934

     the Fermi energy is    -2.8939 ev

!    total energy              =   -1095.32089322 Ry
     estimated scf accuracy    <          3.0E-11 Ry
     smearing contrib. (-TS)   =      -0.00681363 Ry
     internal energy E=F+TS    =   -1095.31407959 Ry

     The total energy is F=E-TS. E is the sum of the following terms:
     one-electron contribution =  -11117.74524785 Ry
     hartree contribution      =    5536.46748376 Ry
     xc contribution           =    -164.77962761 Ry
     ewald contribution        =    4650.74331211 Ry

     convergence has been achieved in  13 iterations

     Forces acting on atoms (cartesian axes, Ry/au):

     atom    1 type  1   force =    -0.00000188    0.00000874   -0.00008135
     atom    2 type  1   force =     0.00000374    0.00002309   -0.00007143
     atom    3 type  1   force =     0.00000872   -0.00000398    0.00006924
     atom    4 type  1   force =    -0.00000982   -0.00001562    0.00006025
     atom    5 type  1   force =     0.00000389    0.00000346   -0.00007858
     atom    6 type  1   force =    -0.00000290    0.00000714   -0.00006973
     atom    7 type  1   force =     0.00000292   -0.00001254    0.00007152
     atom    8 type  1   force =    -0.00000558   -0.00001035    0.00006402
     atom    9 type  2   force =     0.00005096   -0.00001850   -0.00003150
     atom   10 type  2   force =    -0.00003038   -0.00001953   -0.00002141
     atom   11 type  2   force =     0.00002112   -0.00002565   -0.00003570
     atom   12 type  2   force =    -0.00003155   -0.00002339   -0.00003947
     atom   13 type  2   force =    -0.00000648    0.00001141    0.00004998
     atom   14 type  2   force =    -0.00000870    0.00002234    0.00002851
     atom   15 type  2   force =    -0.00000366    0.00002015    0.00003142
     atom   16 type  2   force =     0.00000935   -0.00001327   -0.00003418
     atom   17 type  2   force =     0.00001119   -0.00001358   -0.00002337
     atom   18 type  2   force =     0.00000228   -0.00002003   -0.00004068
     atom   19 type  2   force =    -0.00001471   -0.00001806   -0.00004542
     atom   20 type  2   force =     0.00001197    0.00001068    0.00004961
     atom   21 type  2   force =    -0.00001815    0.00001627    0.00004518
     atom   22 type  2   force =     0.00002331    0.00002749    0.00002676
     atom   23 type  2   force =    -0.00003693    0.00002669    0.00003077
     atom   24 type  2   force =     0.00002127    0.00001703    0.00004554

     Total force =     0.000280     Total SCF correction =     0.000008
     Energy error            =      2.6E-07 Ry
     Gradient error          =      8.1E-05 Ry/Bohr

     bfgs converged in   6 scf cycles and   5 bfgs steps
     (criteria: energy <  1.0E-05 Ry, force <  1.0E-04 Ry/Bohr)

     End of BFGS Geometry Optimization

     Final energy             =   -1095.3208932204 Ry

     File /home/fernando/serse/temp/NB.bfgs deleted, as requested
Begin final coordinates

ATOMIC_POSITIONS (angstrom)
Nb            0.0366295732        1.7800075364        1.2420656757
Nb            4.9566951076        1.7800523094        1.2433448386
Nb            2.4965314232        3.5358759209        1.0717473353
Nb            7.4168038929        3.5358809923        1.0720222476
Nb            0.0366278896        5.2914290987        1.2421380120
Nb            4.9567016326        5.2914819676        1.2434279974
Nb            2.4965384712        7.0473004011        1.0718181323
Nb            7.4168049785        7.0472948811        1.0720771314
C             1.8152242608        1.7802835793        2.3081885609
C             3.1773092055        1.7801659466        2.3086241444
C             6.7359980934        1.7801549546        2.3088474993
C             8.0981012743        1.7802544402        2.3083996763
C             0.7176514175        3.5356594974        0.0055193349
C             4.2756682556        3.5357770220        0.0065370743
C             5.6377522874        3.5358027547        0.0066393113
C             1.8152408954        5.2916699372        2.3082598622
C             3.1772915951        5.2915554680        2.3086980285
C             6.7360121188        5.2915567188        2.3089381969
C             8.0981014623        5.2916500124        2.3084882125
C             9.1956127135        3.5356915871        0.0056331662
C             0.7176657318        7.0470507533        0.0055947736
C             4.2756563561        7.0471597383        0.0065980098
C             5.6377675784        7.0471765450        0.0066923795
C             9.1956182214        7.0470722056        0.0057015347
End final coordinates

     Writing output data file /home/fernando/serse/temp/NB.save/

     General routines

     Parallel routines

   This run was terminated on:  18:47:24  30Jan2025

   JOB DONE.